     Program PWSCF v.5.4.0 starts on 20Apr2017 at 13:59:55

     Current dimensions of program PWSCF are:
     Max number of different atomic species (ntypx) = 10
     Max number of k-points (npk) =  40000
     Max angular momentum in pseudopotentials (lmaxx) =  3

     Parameters for Dispersion Correction:
       atom      VdW radius       C_6

        Cu         2.952        374.666
        C_h        2.744         60.710
        C          2.744         60.710

     bravais-lattice index     =            0
     lattice parameter (alat)  =      13.9425  a.u.
     unit-cell volume          =   21209.0878 (a.u.)^3
     number of atoms/cell      =          156
     number of atomic types    =            3
     number of electrons       =      1380.00
     number of Kohn-Sham states=          828
     kinetic-energy cutoff     =      80.0000  Ry
     charge density cutoff     =     320.0000  Ry
     convergence threshold     =      1.0E-08
     mixing beta               =       0.7000
     number of iterations used =            8  local-TF  mixing
     Exchange-correlation      =  SLA  PW   PBX  PBC ( 1  4  3  4 0 0)

     celldm(1)=  13.942539  celldm(2)=   0.000000  celldm(3)=   0.000000
     celldm(4)=   0.000000  celldm(5)=   0.000000  celldm(6)=   0.000000

     crystal axes: (cart. coord. in units of alat)
               a(1) = (   1.000000   0.000000   0.000000 )
               a(2) = (   0.000000   2.309401   0.000000 )
               a(3) = (   0.000000   0.000000   3.388418 )

     reciprocal axes: (cart. coord. in units 2 pi/alat)
               b(1) = (  1.000000  0.000000  0.000000 )
               b(2) = (  0.000000  0.433013  0.000000 )
               b(3) = (  0.000000  0.000000  0.295123 )

     PseudoPot. # 1 for Cu read from file:
     /home/549/hxw549/Short/pseudopotentials/Cu.pbe-n-van_ak.UPF
     MD5 check sum: 601f7c30f7467666bec936e0661ce3e1
     Pseudo is Ultrasoft + core correction, Zval = 11.0
     Generated by new atomic code, or converted to UPF format
     Using radial grid of  867 points,  6 beta functions with:
                l(1) =   0
                l(2) =   0
                l(3) =   1
                l(4) =   1
                l(5) =   2
                l(6) =   2
     Q(r) pseudized with  8 coefficients,  rinner =    1.400   1.400   1.400
                                                       1.400   1.400

     PseudoPot. # 2 for C  read from file:
     /home/549/hxw549/Short/pseudopotentials/C.star1s-pbe-mt_gipaw.UPF
     MD5 check sum: ef0cb3dee31bd9e4ba2a832a2c716264
     Pseudo is Norm-conserving, Zval =  5.0
     Generated by new atomic code, or converted to UPF format
     Using radial grid of 1073 points,  1 beta functions with:
                l(1) =   0

     PseudoPot. # 3 for C  read from file:
     /home/549/hxw549/Short/pseudopotentials/C.pbe-mt_gipaw.UPF
     MD5 check sum: 5ac2f21f2c440b14befe521540822c15
     Pseudo is Norm-conserving, Zval =  4.0
     Generated by new atomic code, or converted to UPF format
     Using radial grid of 1073 points,  1 beta functions with:
                l(1) =   0

     atomic species   valence    mass     pseudopotential
        Cu            11.00    63.54600     Cu( 1.00)
        C_h            5.00    12.01070     C ( 1.00)
        C              4.00    12.01070     C ( 1.00)

     No symmetry found

   Cartesian axes

     site n.     atom                  positions (alat units)
         1           Cu  tau(   1) = (  -0.0000549   0.0038944   0.8895039  )
         2           Cu  tau(   2) = (   0.2498561   0.2364069   0.8931545  )
         3           Cu  tau(   3) = (   0.4999834   0.0040272   0.8891076  )
         4           Cu  tau(   4) = (   0.7500655   0.2365774   0.8930538  )
         5           Cu  tau(   5) = (  -0.0000562   0.4680485   0.8986857  )
         6           Cu  tau(   6) = (   0.2499204   0.6979601   0.9023997  )
         7           Cu  tau(   7) = (   0.4999770   0.4680600   0.8986438  )
         8           Cu  tau(   8) = (   0.7499919   0.6979170   0.9024188  )
         9           Cu  tau(   9) = (  -0.0000103   0.9272203   0.9035556  )
        10           Cu  tau(  10) = (   0.2499589   1.1564729   0.9037066  )
        11           Cu  tau(  11) = (   0.4999145   0.9271629   0.9034395  )
        12           Cu  tau(  12) = (   0.7499463   1.1564243   0.9036188  )
        13           Cu  tau(  13) = (  -0.0001139   1.3860246   0.9027183  )
        14           Cu  tau(  14) = (   0.2498801   1.6163418   0.8986746  )
        15           Cu  tau(  15) = (   0.5000280   1.3859803   0.9024834  )
        16           Cu  tau(  16) = (   0.7500312   1.6160597   0.8985479  )
        17           Cu  tau(  17) = (   0.0000423   1.8478793   0.8927838  )
        18           Cu  tau(  18) = (   0.2500275   2.0802463   0.8891797  )
        19           Cu  tau(  19) = (   0.4998824   1.8476458   0.8930400  )
        20           Cu  tau(  20) = (   0.7499023   2.0802466   0.8892023  )
        21           Cu  tau(  21) = (  -0.0000006   0.2314407   1.1418707  )
        22           Cu  tau(  22) = (   0.2498892   0.0016921   1.1383038  )
        23           Cu  tau(  23) = (   0.4999305   0.2313254   1.1417344  )
        24           Cu  tau(  24) = (   0.7500314   0.0017233   1.1384329  )
        25           Cu  tau(  25) = (  -0.0000709   0.6957747   1.1517252  )
        26           Cu  tau(  26) = (   0.2500244   0.4632860   1.1474081  )
        27           Cu  tau(  27) = (   0.4999876   0.6957836   1.1516684  )
        28           Cu  tau(  28) = (   0.7498984   0.4632432   1.1473117  )
        29           Cu  tau(  29) = (  -0.0000630   1.1568679   1.1543012  )
        30           Cu  tau(  30) = (   0.2499277   0.9268448   1.1543638  )
        31           Cu  tau(  31) = (   0.4999724   1.1568693   1.1541867  )
        32           Cu  tau(  32) = (   0.7500027   0.9269784   1.1543223  )
        33           Cu  tau(  33) = (  -0.0000082   1.6210599   1.1470060  )
        34           Cu  tau(  34) = (   0.2498596   1.3881448   1.1514236  )
        35           Cu  tau(  35) = (   0.4999174   1.6209561   1.1473344  )
        36           Cu  tau(  36) = (   0.7500490   1.3882920   1.1514093  )
        37           Cu  tau(  37) = (  -0.0001368   2.0821940   1.1384383  )
        38           Cu  tau(  38) = (   0.2500917   1.8528039   1.1417247  )
        39           Cu  tau(  39) = (   0.5000439   2.0824138   1.1382179  )
        40           Cu  tau(  40) = (   0.7498259   1.8528944   1.1417626  )
        41           Cu  tau(  41) = (  -0.0001378   0.0006883   1.3919862  )
        42           Cu  tau(  42) = (   0.2499845   0.2287190   1.3929011  )
        43           Cu  tau(  43) = (   0.5000483   0.0010692   1.3920855  )
        44           Cu  tau(  44) = (   0.7499379   0.2286829   1.3928022  )
        45           Cu  tau(  45) = (   0.0000062   0.4584630   1.3955340  )
        46           Cu  tau(  46) = (   0.2499963   0.6914661   1.3999671  )
        47           Cu  tau(  47) = (   0.4999185   0.4580848   1.3951344  )
        48           Cu  tau(  48) = (   0.7499533   0.6912121   1.4000695  )
        49           Cu  tau(  49) = (  -0.0000360   0.9252124   1.4043059  )
        50           Cu  tau(  50) = (   0.2499282   1.1590389   1.4037961  )
        51           Cu  tau(  51) = (   0.4999469   0.9251753   1.4044409  )
        52           Cu  tau(  52) = (   0.7500253   1.1590458   1.4042624  )
        53           Cu  tau(  53) = (  -0.0000739   1.3928481   1.3993409  )
        54           Cu  tau(  54) = (   0.2500691   1.6257625   1.3946926  )
        55           Cu  tau(  55) = (   0.4999884   1.3926344   1.3994945  )
        56           Cu  tau(  56) = (   0.7498314   1.6259215   1.3947318  )
        57           Cu  tau(  57) = (  -0.0000489   1.8554057   1.3928460  )
        58           Cu  tau(  58) = (   0.2499235   2.0832681   1.3919605  )
        59           Cu  tau(  59) = (   0.4999390   1.8556516   1.3922941  )
        60           Cu  tau(  60) = (   0.7499778   2.0829845   1.3920999  )
[...]
        98           Cu  tau(  98) = (   0.2493588   2.0836751   1.9022804  )
        99           Cu  tau(  99) = (   0.4999181   1.8599112   1.9009201  )
       100           Cu  tau( 100) = (   0.7504827   2.0840516   1.9026399  )
       101           Cu  tau( 101) = (   0.2536675   1.3944837   2.1357621  )
       102           Cu  tau( 102) = (   0.7464037   1.3942318   2.1363374  )
       103           Cu  tau( 103) = (  -0.0004629   1.1583394   2.1209052  )
       104           Cu  tau( 104) = (   0.2505084   0.9288428   2.1206185  )
       105           Cu  tau( 105) = (   0.5002771   1.1562048   2.1193217  )
       106           Cu  tau( 106) = (   0.7495267   0.9280549   2.1199382  )
       107           Cu  tau( 107) = (  -0.0000193   0.6948418   2.1354509  )
       108           Cu  tau( 108) = (   0.4998810   0.6882222   2.1355829  )
       109           C   tau( 109) = (   0.0000991   0.0901428   2.4031502  )
       110           C   tau( 110) = (   0.0000930   0.2823830   2.4180114  )
       111           C   tau( 111) = (   0.1666773  -0.0064510   2.3996578  )
       112           C   tau( 112) = (   0.1668787   0.3782408   2.4277671  )
       113           C_h tau( 113) = (   0.3333089   0.0900211   2.4026227  )
       114           C   tau( 114) = (   0.3334028   0.2822316   2.4161361  )
       115           C   tau( 115) = (   0.5000830  -0.0063283   2.3982863  )
       116           C   tau( 116) = (   0.5000767   0.3780919   2.4227795  )
       117           C   tau( 117) = (   0.6669041   0.0900346   2.4025061  )
       118           C   tau( 118) = (   0.6667952   0.2822435   2.4160878  )
       119           C   tau( 119) = (   0.8334865  -0.0064471   2.3995724  )
       120           C   tau( 120) = (   0.8332736   0.3782539   2.4277003  )
       121           C   tau( 121) = (   0.0000735   0.6670179   2.4604097  )
       122           C   tau( 122) = (   0.0001050   0.8588633   2.4907114  )
       123           C   tau( 123) = (   0.1672571   0.5698504   2.4498428  )
       124           C   tau( 124) = (   0.1665971   0.9552497   2.4963875  )
       125           C   tau( 125) = (   0.3330385   0.6665151   2.4637668  )
       126           C   tau( 126) = (   0.3335343   0.8585536   2.4894103  )
       127           C   tau( 127) = (   0.5001160   0.5707969   2.4446470  )
       128           C   tau( 128) = (   0.5000868   0.9548012   2.4981070  )
       129           C   tau( 129) = (   0.6671111   0.6664905   2.4640110  )
       130           C   tau( 130) = (   0.6666802   0.8585370   2.4895177  )
       131           C   tau( 131) = (   0.8329626   0.5698624   2.4498385  )
       132           C   tau( 132) = (   0.8335464   0.9552517   2.4962856  )
       133           C   tau( 133) = (   0.0000911   1.2451825   2.4876213  )
       134           C   tau( 134) = (   0.0001131   1.4371710   2.4617966  )
       135           C   tau( 135) = (   0.1670675   1.1488169   2.4970265  )
       136           C   tau( 136) = (   0.1662741   1.5330753   2.4437487  )
       137           C   tau( 137) = (   0.3332653   1.2449196   2.4879988  )
       138           C   tau( 138) = (   0.3337767   1.4368407   2.4576005  )
       139           C   tau( 139) = (   0.5001230   1.1482862   2.4940804  )
       140           C   tau( 140) = (   0.5000809   1.5342903   2.4464359  )
       141           C   tau( 141) = (   0.6669118   1.2449151   2.4881715  )
       142           C   tau( 142) = (   0.6664409   1.4368275   2.4575860  )
       143           C   tau( 143) = (   0.8331701   1.1488111   2.4971678  )
       144           C   tau( 144) = (   0.8339073   1.5330595   2.4436703  )
       145           C   tau( 145) = (   0.0001003   1.8211673   2.4126494  )
       146           C   tau( 146) = (   0.0000762   2.0135533   2.4010454  )
       147           C   tau( 147) = (   0.1666886   1.7253778   2.4216854  )
       148           C   tau( 148) = (   0.1666494   2.1103073   2.3983956  )
       149           C   tau( 149) = (   0.3333114   1.8216121   2.4144844  )
       150           C   tau( 150) = (   0.3333631   2.0140026   2.4017749  )
       151           C   tau( 151) = (   0.5000809   1.7256607   2.4249251  )
       152           C   tau( 152) = (   0.5001229   2.1104737   2.3992384  )
       153           C   tau( 153) = (   0.6668851   1.8216063   2.4144419  )
       154           C   tau( 154) = (   0.6667882   2.0139890   2.4016302  )
       155           C   tau( 155) = (   0.8334653   1.7253669   2.4216510  )
       156           C   tau( 156) = (   0.8335837   2.1103089   2.3982893  )

     number of k points=     6  gaussian smearing, width (Ry)=  0.1000
                       cart. coord. in units 2pi/alat
        k(    1) = (   0.0000000   0.0000000   0.0000000), wk =   0.2500000
        k(    2) = (   0.0000000  -0.2165064   0.0000000), wk =   0.2500000
        k(    3) = (   0.2500000   0.0000000   0.0000000), wk =   0.5000000
        k(    4) = (   0.2500000  -0.2165064   0.0000000), wk =   0.5000000
        k(    5) = (  -0.5000000   0.0000000   0.0000000), wk =   0.2500000
        k(    6) = (  -0.5000000  -0.2165064   0.0000000), wk =   0.2500000

     Largest allocated arrays     est. size (Mb)     dimensions
     Largest temporary arrays     est. size (Mb)     dimensions

     Initial potential from superposition of free atoms
     Check: negative starting charge=   -0.001552

     starting charge 1354.72292, renormalised to 1380.00000

     negative rho (up, down):  1.581E-03 0.000E+00
     Starting wfc are 1356 randomized atomic wfcs

     Self-consistent Calculation

     iteration #  1     ecut=    80.00 Ry     beta=0.70
     Davidson diagonalization with overlap
     c_bands:  3 eigenvalues not converged
     c_bands:  5 eigenvalues not converged
     c_bands:  3 eigenvalues not converged
     c_bands:  4 eigenvalues not converged
     c_bands:  5 eigenvalues not converged
     ethr =  1.00E-04,  avg # of iterations = 41.8

     negative rho (up, down):  2.536E+01 0.000E+00

     total energy              =  -10736.70111472 Ry
     Harris-Foulkes estimate   =  -19010.93287356 Ry
     estimated scf accuracy    <  214229.39510683 Ry

     iteration #  2     ecut=    80.00 Ry     beta=0.70
     Davidson diagonalization with overlap
     ethr =  1.00E-02,  avg # of iterations = 14.2

[...]

     iteration # 35     ecut=    80.00 Ry     beta=0.70
     Davidson diagonalization with overlap
     c_bands:  1 eigenvalues not converged
     ethr =  2.00E-09,  avg # of iterations =  7.2

[...]

     total energy              =  -13679.28791956 Ry
     Harris-Foulkes estimate   =  -13679.28791957 Ry
     estimated scf accuracy    <       0.00000001 Ry

     iteration # 41     ecut=    80.00 Ry     beta=0.70
     Davidson diagonalization with overlap
     ethr =  1.07E-12,  avg # of iterations =  2.3

     negative rho (up, down):  1.711E-03 0.000E+00

     End of self-consistent calculation

          k = 0.0000 0.0000 0.0000 (256287 PWs)   bands (ev):

   -16.5441 -15.7173 -15.4595 -14.7826 -14.4292 -14.1039 -13.9864 -13.7333
   -13.6407 -13.5044 -13.4964 -12.8553 -12.7436 -12.5464 -12.5081 -12.4771
   -12.4579 -11.0813 -10.9404 -10.8801 -10.7926 -10.6466  -9.7237  -9.1718
    -9.1258  -9.0087  -8.9315  -8.3741  -8.1831  -8.0482  -7.9774  -7.4556
    -7.3123  -7.1734  -7.0382  -6.9694  -6.9573  -6.9224  -6.8917  -5.7619
    -5.7524  -5.5155  -5.4402  -5.3964  -5.3607  -5.2968  -5.2729  -5.2619
    -4.8967  -4.8486  -4.6200  -4.3120  -4.2878  -4.2239  -4.1554  -4.0940
    -3.9790  -3.8870  -3.7846  -3.6916  -3.3956  -3.3533  -3.3513  -3.2807
    -3.0016  -2.9893  -2.9839  -2.9347  -2.8487  -2.8308  -2.8139  -2.7820
    -2.7806  -2.6313  -2.5587  -2.5034  -2.4478  -2.4147  -2.4104  -2.3714
    -2.3706  -2.3671  -2.3393  -2.3287  -2.3057  -2.2615  -2.2057  -2.1820
    -2.1561  -2.1329  -1.9614  -1.8919  -1.8615  -1.7652  -1.7524  -1.7377
    -1.7009  -1.6795  -1.6161  -1.5870  -1.5723  -1.5672  -1.5204  -1.5154
    -1.5152  -1.5054  -1.5044  -1.4556  -1.4339  -1.4151  -1.4137  -1.3920
    -1.3785  -1.3784  -1.3658  -1.2395  -1.2282  -1.2264  -1.1602  -1.1509
    -1.1459  -1.1433  -1.1262  -1.0995  -1.0982  -1.0767  -1.0262  -1.0252
    -1.0217  -1.0200  -1.0002  -0.9675  -0.9463  -0.9445  -0.9425  -0.9207
    -0.9179  -0.9030  -0.8976  -0.8889  -0.8604  -0.8503  -0.8373  -0.8196
    -0.7924  -0.7877  -0.7454  -0.7270  -0.6997  -0.6737  -0.6723  -0.6572
    -0.6335  -0.6260  -0.6230  -0.6103  -0.5870  -0.5849  -0.5679  -0.5614
    -0.5596  -0.5541  -0.5444  -0.5267  -0.5080  -0.4960  -0.4810  -0.4703
    -0.4487  -0.4456  -0.4449  -0.4370  -0.4339  -0.4323  -0.4212  -0.4180
    -0.4145  -0.4116  -0.4013  -0.3824  -0.3716  -0.3670  -0.3563  -0.3473
    -0.3400  -0.3374  -0.3249  -0.3166  -0.3157  -0.3134  -0.3119  -0.3056
    -0.3044  -0.2702  -0.2684  -0.2670  -0.2565  -0.2548  -0.2411  -0.2403
    -0.2319  -0.2210  -0.2185  -0.2154  -0.2153  -0.2088  -0.2071  -0.2057
    -0.1973  -0.1799  -0.1359  -0.1329  -0.1234  -0.1062  -0.0991  -0.0846
    -0.0718  -0.0564  -0.0516  -0.0506  -0.0424  -0.0408  -0.0353  -0.0235
    -0.0118  -0.0102   0.0055   0.0057   0.0069   0.0156   0.0242   0.0367
     0.0375   0.0387   0.0540   0.0545   0.0547   0.0919   0.0938   0.0988
     0.1238   0.1401   0.1498   0.1505   0.1554   0.1564   0.1776   0.1786
     0.1844   0.1889   0.2089   0.2091   0.2096   0.2199   0.2205   0.2223
     0.2227   0.2250   0.2287   0.2430   0.2534   0.2578   0.2635   0.2688
     0.2690   0.2739   0.2741   0.2919   0.2944   0.3053   0.3056   0.3128
     0.3287   0.3289   0.3405   0.3415   0.3419   0.3457   0.3469   0.3584
     0.3598   0.3687   0.3706   0.3777   0.3813   0.3819   0.3872   0.3873
     0.3999   0.4001   0.4200   0.4228   0.4261   0.4284   0.4322   0.4329
     0.4349   0.4353   0.4408   0.4418   0.4696   0.4704   0.4752   0.4764
     0.4793   0.5002   0.5003   0.5151   0.5229   0.5274   0.5281   0.5315
     0.5357   0.5519   0.5530   0.5567   0.5640   0.5645   0.5667   0.5677
     0.5722   0.5959   0.5964   0.6013   0.6040   0.6055   0.6117   0.6220
     0.6253   0.6263   0.6335   0.6337   0.6511   0.6545   0.6551   0.6592
     0.6605   0.6610   0.6630   0.6701   0.6810   0.6831   0.6877   0.6887
     0.6916   0.6928   0.6954   0.7060   0.7304   0.7327   0.7488   0.7632
     0.7648   0.7741   0.7816   0.7885   0.7894   0.7906   0.7950   0.8122
     0.8134   0.8283   0.8392   0.8439   0.8526   0.8530   0.8546   0.8646
     0.8656   0.8779   0.8862   0.9035   0.9094   0.9101   0.9118   0.9184
     0.9193   0.9340   0.9436   0.9454   0.9584   0.9600   0.9645   0.9652
     0.9739   0.9754   1.0044   1.0115   1.0161   1.0192   1.0246   1.0264
     1.0276   1.0324   1.0333   1.0478   1.0487   1.0508   1.0517   1.0587
     1.0797   1.0814   1.0857   1.0863   1.0886   1.0979   1.1053   1.1102
     1.1542   1.1543   1.1587   1.1639   1.1683   1.1711   1.1738   1.1751
     1.1775   1.1813   1.1850   1.1912   1.1960   1.1982   1.2015   1.2045
     1.2092   1.2142   1.2148   1.2167   1.2264   1.2326   1.2403   1.2411
     1.2461   1.2483   1.2565   1.2592   1.2607   1.2637   1.2749   1.2759
     1.2820   1.2901   1.2937   1.2966   1.2968   1.2980   1.2998   1.3004
     1.3016   1.3089   1.3288   1.3349   1.3359   1.3409   1.3423   1.3438
     1.3451   1.3470   1.3566   1.3594   1.3599   1.3706   1.3709   1.3715
     1.3735   1.3843   1.3891   1.3908   1.3922   1.3975   1.3999   1.4065
     1.4124   1.4160   1.4259   1.4369   1.4465   1.4496   1.4585   1.4620
[...]
     4.6210   4.6226   4.9090   5.0173   5.0322   5.0534   5.0931   5.2126
     5.3522   5.3769   5.4477   5.4653   5.5564   5.5654   5.6659   5.6738
     5.8042   5.9149   6.0993   6.1207   6.3199   6.3561   6.3697   6.4787
     6.5217   6.7740   6.8057   6.8097   6.8542   6.8749   7.0387   7.0577
     7.0956   7.1635   7.2426   7.2690   7.2853   7.3681   7.4051   7.4129
     7.4192   7.4201   7.4287   7.4639   7.5391   7.7026   7.7064   7.7300
     7.8623   7.9462   7.9547   8.0039   8.0477   8.1208   8.1549   8.2996
     8.3055   8.3122   8.3148   8.5786   8.5885   8.5907   8.6392   8.6761
     8.7051   8.7165   8.7204   8.8039   8.8264   8.8304   8.8844   8.9176
     8.9401   9.0058   9.0718   9.1066   9.1505   9.1511   9.1600   9.1996
     9.2039   9.3022   9.3083   9.3119   9.3143   9.3551   9.3559   9.3653
     9.3827   9.5295   9.5650   9.7156   9.7184   9.7720   9.8008   9.8197
     9.8286   9.8324   9.9274  10.0401  10.0511  10.0955  10.0998  10.3887
    10.4308  10.4873  10.5216  10.5309  10.5371  10.5574  10.5876  10.5981
    10.6269  10.6360  10.6395  10.6540

[...]

          k = 0.2500-0.2165 0.0000 (256316 PWs)   bands (ev):

[...]

          k =-0.5000 0.0000 0.0000 (256496 PWs)   bands (ev):

[...]

          k =-0.5000-0.2165 0.0000 (256328 PWs)   bands (ev):

   -16.4328 -15.2988 -15.2754 -15.2113 -14.8146 -14.5809 -14.5658 -14.4624
   -13.4626 -13.2288 -13.1098 -13.0520 -11.9748 -11.7216 -11.4594 -11.4329
   -11.3243 -11.2009 -11.0698 -11.0244 -10.9411 -10.9184 -10.8187 -10.7883
    -9.3900  -9.3714  -9.2037  -9.1563  -8.6320  -8.3235  -8.1933  -8.1699
    -7.6538  -7.6340  -7.4738  -7.4621  -5.9554  -5.6468  -5.5448  -5.3689
    -5.2420  -5.0096  -4.7640  -4.7302  -4.7065  -4.5807  -4.5758  -4.5407
    -4.5363  -4.5298  -4.4477  -4.4166  -4.1040  -3.9793  -3.9486  -3.8950
    -3.7420  -3.6311  -3.6216  -3.5986  -3.5887  -3.5588  -3.5544  -3.5247
    -3.5136  -3.4940  -3.4887  -3.4522  -3.3499  -3.2692  -3.1875  -3.1678
    -3.1406  -3.1080  -3.0956  -3.0615  -3.0386  -2.8551  -2.7978  -2.7815
    -2.6823  -2.6072  -2.5556  -2.4880  -2.3504  -2.3465  -2.0720  -2.0695
    -2.0308  -1.9878  -1.9466  -1.9442  -1.9425  -1.9414  -1.8409  -1.7888
    -1.6855  -1.6638  -1.6392  -1.6249  -1.5779  -1.5171  -1.5135  -1.4687
    -1.4648  -1.4572  -1.4524  -1.4512  -1.4043  -1.2190  -1.2148  -1.1846
    -1.1827  -1.1747  -1.1727  -1.1570  -1.1353  -1.1114  -1.0353  -0.9985
    -0.9898  -0.9611  -0.9604  -0.9250  -0.8628  -0.8612  -0.8566  -0.8552
    -0.8192  -0.8160  -0.8132  -0.8109  -0.8107  -0.8101  -0.8075  -0.8018
    -0.7988  -0.7984  -0.7712  -0.7686  -0.7648  -0.7642  -0.7544  -0.7447
    -0.7436  -0.7429  -0.7410  -0.7326  -0.7318  -0.7291  -0.7284  -0.6898
    -0.6864  -0.6226  -0.6210  -0.6147  -0.6082  -0.5897  -0.5833  -0.5760
    -0.5743  -0.5640  -0.5629  -0.5385  -0.5383  -0.5302  -0.5290  -0.5169
    -0.5112  -0.5108  -0.5082  -0.5065  -0.4966  -0.4955  -0.4910  -0.4892
    -0.4867  -0.4806  -0.4791  -0.4713  -0.4530  -0.4485  -0.4473  -0.4425
    -0.4274  -0.4266  -0.4233  -0.4223  -0.4051  -0.4035  -0.4025  -0.4023
    -0.3689  -0.3583  -0.3561  -0.3549  -0.3072  -0.3054  -0.3035  -0.3001
    -0.2463  -0.2451  -0.2214  -0.2206  -0.1977  -0.1973  -0.1892  -0.1879
    -0.1476  -0.1467  -0.1345  -0.1336  -0.1328  -0.1321  -0.1203  -0.1200
    -0.1154  -0.1102  -0.0854  -0.0848  -0.0746  -0.0711  -0.0653  -0.0639
    -0.0526  -0.0520  -0.0467  -0.0452   0.0269   0.0346   0.0356   0.0412
     0.0532   0.0544   0.0745   0.0777   0.0813   0.0821   0.0893   0.0908
     0.0997   0.1175   0.1269   0.1310   0.1326   0.1338   0.1644   0.1728
     0.1731   0.1796   0.1820   0.1824   0.1843   0.1844   0.2067   0.2187
     0.2233   0.2293   0.2371   0.2445   0.2496   0.2506   0.2633   0.2984
     0.3015   0.3232   0.3268   0.3285   0.3501   0.3512   0.3540   0.3551
     0.3559   0.3581   0.3594   0.3658   0.3697   0.3706   0.3760   0.3782
     0.3860   0.3902   0.3984   0.4350   0.4414   0.4448   0.4452   0.4463
     0.4494   0.4538   0.4559   0.4829   0.4877   0.4912   0.4938   0.4974
     0.4987   0.4991   0.4992   0.4999   0.5024   0.5068   0.5093   0.5094
     0.5306   0.5343   0.5420   0.5508   0.5554   0.5575   0.5665   0.5767
     0.5813   0.5997   0.6135   0.6157   0.6161   0.6388   0.6418   0.6454
     0.6496   0.6513   0.6518   0.6525   0.6600   0.6618   0.6746   0.6778
     0.6780   0.6879   0.6922   0.6936   0.6950   0.7075   0.7089   0.7093
     0.7110   0.7112   0.7139   0.7190   0.7235   0.7261   0.7268   0.7280
     0.7304   0.7441   0.7480   0.7517   0.7544   0.7551   0.7580   0.7588
     0.7606   0.7668   0.7679   0.7833   0.8031   0.8187   0.8199   0.8208
     0.8271   0.8326   0.8343   0.8353   0.8401   0.8555   0.8625   0.8640
     0.8648   0.8664   0.8792   0.8831   0.8882   0.8962   0.8970   0.9115
     0.9198   0.9216   0.9340   0.9523   0.9563   0.9624   0.9638   0.9712
     0.9736   0.9757   0.9867   0.9892   1.0005   1.0041   1.0051   1.0087
     1.0097   1.0104   1.0196   1.0235   1.0268   1.0275   1.0327   1.0368
     1.0383   1.0444   1.0480   1.0503   1.0506   1.0641   1.0677   1.0700
     1.0738   1.0814   1.0865   1.0916   1.0956   1.0963   1.0986   1.1064
     1.1128   1.1195   1.1208   1.1226   1.1267   1.1315   1.1483   1.1508
     1.1542   1.1547   1.1635   1.1767   1.1785   1.1805   1.1840   1.1877
     1.1893   1.1908   1.2023   1.2177   1.2179   1.2193   1.2202   1.2333
     1.2338   1.2365   1.2370   1.2403   1.2452   1.2473   1.2485   1.2509
     1.2675   1.2708   1.2771   1.2865   1.2872   1.2896   1.2961   1.2973
     1.3016   1.3056   1.3130   1.3183   1.3201   1.3239   1.3277   1.3371
     1.3403   1.3413   1.3468   1.3481   1.3519   1.3530   1.3696   1.3739
     1.3824   1.3845   1.3877   1.3918   1.3925   1.3944   1.3989   1.4006
[...]
     5.1368   5.1680   5.2298   5.2485   5.2529   5.3234   5.3379   5.3758
     5.4168   5.4483   5.4939   5.5660   5.5757   5.6173   5.6321   5.6411
     5.6767   5.6828   5.7143   5.7400   5.7570   5.8172   5.9687   6.0424
     6.0590   6.1108   6.1234   6.1472   6.1740   6.1868   6.2349   6.2709
     6.3967   6.4066   6.4143   6.4263   6.8066   6.8151   6.8367   6.8408
     7.1917   7.2002   7.2807   7.2836   7.5044   7.5097   7.5111   7.5317
     7.5924   7.6018   7.7249   7.7350   7.7392   7.7418   7.9484   7.9493
     7.9514   7.9523   8.0912   8.1346   8.1424   8.2007   8.2124   8.3873
     8.4052   8.4845   8.4908   8.5430   8.6163   8.6245   8.6346   8.6421
     8.6845   8.6853   8.8372   8.8700   8.9747   8.9892   9.0016   9.0105
     9.2357   9.2460   9.3184   9.3236   9.4210   9.4231   9.4246   9.4254
     9.5095   9.5133   9.5265   9.5299   9.5950   9.6008   9.6085   9.6096
     9.6128   9.6241   9.6630   9.6731   9.7090   9.7253   9.9664   9.9820
    10.0468  10.0639  10.2737  10.2781  10.2866  10.2940  10.3574  10.3674
    10.5095  10.5263  10.5318  10.5378

     the Fermi energy is     3.9284 ev

!    total energy              =  -13679.28791955 Ry
     Harris-Foulkes estimate   =  -13679.28791956 Ry
     estimated scf accuracy    <          5.3E-09 Ry

     The total energy is the sum of the following terms:

     one-electron contribution = -106325.05902936 Ry
     hartree contribution      =   54658.20071412 Ry
     xc contribution           =   -4789.49193698 Ry
     ewald contribution        =   42783.77371497 Ry
     Dispersion Correction     =      -3.10053462 Ry
     smearing contrib. (-TS)   =      -3.61084768 Ry

     convergence has been achieved in  41 iterations

     Writing output data file gc.save

     General routines

     Parallel routines

   This run was terminated on:  18: 0:50  20Apr2017

   JOB DONE.