     Program PWSCF v.5.4.0 starts on 30Jan2018 at 12:26:35

     Current dimensions of program PWSCF are:
     Max number of different atomic species (ntypx) = 10
     Max number of k-points (npk) =  40000
     Max angular momentum in pseudopotentials (lmaxx) =  3

     Parameters for Dispersion Correction:
       atom      VdW radius       C_6

        Cu         2.952        374.666
        C_h        2.744         60.710
        C          2.744         60.710

     bravais-lattice index     =            0
     lattice parameter (alat)  =      13.9425  a.u.
     unit-cell volume          =   21209.0878 (a.u.)^3
     number of atoms/cell      =          148
     number of atomic types    =            3
     number of electrons       =      1293.00
     number of Kohn-Sham states=          776
     kinetic-energy cutoff     =      80.0000  Ry
     charge density cutoff     =     320.0000  Ry
     convergence threshold     =      1.0E-08
     mixing beta               =       0.7000
     number of iterations used =            8  local-TF  mixing
     Exchange-correlation      =  SLA  PW   PBX  PBC ( 1  4  3  4 0 0)

     celldm(1)=  13.942539  celldm(2)=   0.000000  celldm(3)=   0.000000
     celldm(4)=   0.000000  celldm(5)=   0.000000  celldm(6)=   0.000000

     crystal axes: (cart. coord. in units of alat)
               a(1) = (   1.000000   0.000000   0.000000 )
               a(2) = (   0.000000   2.309401   0.000000 )
               a(3) = (   0.000000   0.000000   3.388418 )

     reciprocal axes: (cart. coord. in units 2 pi/alat)
               b(1) = (  1.000000  0.000000  0.000000 )
               b(2) = (  0.000000  0.433013  0.000000 )
               b(3) = (  0.000000  0.000000  0.295123 )

     PseudoPot. # 1 for Cu read from file:
     /home/549/hxw549/Short/pseudopotentials/Cu.pbe-n-van_ak.UPF
     MD5 check sum: 601f7c30f7467666bec936e0661ce3e1
     Pseudo is Ultrasoft + core correction, Zval = 11.0
     Generated by new atomic code, or converted to UPF format
     Using radial grid of  867 points,  6 beta functions with:
                l(1) =   0
                l(2) =   0
                l(3) =   1
                l(4) =   1
                l(5) =   2
                l(6) =   2
     Q(r) pseudized with  8 coefficients,  rinner =    1.400   1.400   1.400
                                                       1.400   1.400

     PseudoPot. # 2 for C  read from file:
     /home/549/hxw549/Short/pseudopotentials/C.star1s-pbe-mt_gipaw.UPF
     MD5 check sum: ef0cb3dee31bd9e4ba2a832a2c716264
     Pseudo is Norm-conserving, Zval =  5.0
     Generated by new atomic code, or converted to UPF format
     Using radial grid of 1073 points,  1 beta functions with:
                l(1) =   0

     PseudoPot. # 3 for C  read from file:
     /home/549/hxw549/Short/pseudopotentials/C.pbe-mt_gipaw.UPF
     MD5 check sum: 5ac2f21f2c440b14befe521540822c15
     Pseudo is Norm-conserving, Zval =  4.0
     Generated by new atomic code, or converted to UPF format
     Using radial grid of 1073 points,  1 beta functions with:
                l(1) =   0

     atomic species   valence    mass     pseudopotential
        Cu            11.00    63.54600     Cu( 1.00)
        C_h            5.00    12.01070     C ( 1.00)
        C              4.00    12.01070     C ( 1.00)

     No symmetry found

   Cartesian axes

     site n.     atom                  positions (alat units)
         1           Cu  tau(   1) = (   0.0000000   0.0000567   0.9971194  )
         2           Cu  tau(   2) = (   0.2499927   0.2309760   0.9972946  )
         3           Cu  tau(   3) = (   0.5000000   0.0000313   0.9971490  )
         4           Cu  tau(   4) = (   0.7500073   0.2309760   0.9972946  )
         5           Cu  tau(   5) = (   0.0000000   0.4618437   0.9973425  )
         6           Cu  tau(   6) = (   0.2499840   0.6927701   0.9971914  )
         7           Cu  tau(   7) = (   0.5000000   0.4618722   0.9973119  )
         8           Cu  tau(   8) = (   0.7500160   0.6927701   0.9971914  )
         9           Cu  tau(   9) = (   0.0000000   0.9237521   0.9970621  )
        10           Cu  tau(  10) = (   0.2500157   1.1547420   0.9971373  )
        11           Cu  tau(  11) = (   0.5000000   0.9237453   0.9970727  )
        12           Cu  tau(  12) = (   0.7499843   1.1547420   0.9971373  )
        13           Cu  tau(  13) = (   0.0000000   1.3856555   0.9972830  )
        14           Cu  tau(  14) = (   0.2500029   1.6165618   0.9973242  )
        15           Cu  tau(  15) = (   0.5000000   1.3857014   0.9973005  )
        16           Cu  tau(  16) = (   0.7499971   1.6165618   0.9973242  )
        17           Cu  tau(  17) = (   0.0000000   1.8474941   0.9971969  )
        18           Cu  tau(  18) = (   0.2500043   2.0784518   0.9970745  )
        19           Cu  tau(  19) = (   0.5000000   1.8474499   0.9971773  )
        20           Cu  tau(  20) = (   0.7499957   2.0784518   0.9970745  )
        21           Cu  tau(  21) = (   0.0000000   0.2308065   1.2457643  )
        22           Cu  tau(  22) = (   0.2499892  -0.0001010   1.2455764  )
        23           Cu  tau(  23) = (   0.5000000   0.2308938   1.2456746  )
        24           Cu  tau(  24) = (   0.7500108  -0.0001010   1.2455764  )
        25           Cu  tau(  25) = (   0.0000000   0.6929786   1.2456406  )
        26           Cu  tau(  26) = (   0.2499874   0.4619293   1.2457459  )
        27           Cu  tau(  27) = (   0.5000000   0.6929012   1.2456074  )
        28           Cu  tau(  28) = (   0.7500126   0.4619293   1.2457459  )
        29           Cu  tau(  29) = (   0.0000000   1.1546142   1.2455676  )
        30           Cu  tau(  30) = (   0.2499981   0.9237849   1.2455149  )
        31           Cu  tau(  31) = (   0.5000000   1.1545763   1.2455800  )
        32           Cu  tau(  32) = (   0.7500019   0.9237849   1.2455149  )
        33           Cu  tau(  33) = (   0.0000000   1.6166029   1.2456910  )
        34           Cu  tau(  34) = (   0.2500161   1.3855492   1.2457134  )
        35           Cu  tau(  35) = (   0.5000000   1.6166555   1.2458019  )
        36           Cu  tau(  36) = (   0.7499839   1.3855492   1.2457134  )
        37           Cu  tau(  37) = (   0.0000000   2.0784993   1.2455162  )
        38           Cu  tau(  38) = (   0.2500161   1.8476387   1.2456210  )
        39           Cu  tau(  39) = (   0.5000000   2.0784755   1.2455152  )
        40           Cu  tau(  40) = (   0.7499839   1.8476387   1.2456210  )
        41           Cu  tau(  41) = (   0.0000000  -0.0003182   1.4954305  )
        42           Cu  tau(  42) = (   0.2500224   0.2307186   1.4951678  )
        43           Cu  tau(  43) = (   0.5000000  -0.0002059   1.4952775  )
        44           Cu  tau(  44) = (   0.7499776   0.2307186   1.4951678  )
        45           Cu  tau(  45) = (   0.0000000   0.4620254   1.4950571  )
        46           Cu  tau(  46) = (   0.2500339   0.6931225   1.4952807  )
        47           Cu  tau(  47) = (   0.5000000   0.4619896   1.4952144  )
        48           Cu  tau(  48) = (   0.7499661   0.6931225   1.4952807  )
        49           Cu  tau(  49) = (   0.0000000   0.9238798   1.4954544  )
        50           Cu  tau(  50) = (   0.2499708   1.1544329   1.4953374  )
        51           Cu  tau(  51) = (   0.5000000   0.9237633   1.4954072  )
        52           Cu  tau(  52) = (   0.7500292   1.1544329   1.4953374  )
        53           Cu  tau(  53) = (   0.0000000   1.3854453   1.4952066  )
        54           Cu  tau(  54) = (   0.2499861   1.6167017   1.4951298  )
        55           Cu  tau(  55) = (   0.5000000   1.3853760   1.4951346  )
        56           Cu  tau(  56) = (   0.7500139   1.6167017   1.4951298  )
        57           Cu  tau(  57) = (   0.0000000   1.8477718   1.4952308  )
        58           Cu  tau(  58) = (   0.2499930   2.0785254   1.4954090  )
        59           Cu  tau(  59) = (   0.5000000   1.8478762   1.4953503  )
        60           Cu  tau(  60) = (   0.7500070   2.0785254   1.4954090  )
[...]
       102           C   tau( 102) = (   0.0000000   0.2886925   2.4379804  )
       103           C   tau( 103) = (   0.1666323   0.0000435   2.3878725  )
       104           C   tau( 104) = (   0.1664900   0.3848966   2.3886722  )
       105           C   tau( 105) = (   0.3331238   0.0962174   2.4339279  )
       106           C   tau( 106) = (   0.3331280   0.2886629   2.4336026  )
       107           C   tau( 107) = (   0.5000000  -0.0000818   2.3845247  )
       108           C   tau( 108) = (   0.5000000   0.3849277   2.3842266  )
       109           C   tau( 109) = (   0.6668762   0.0962174   2.4339279  )
       110           C   tau( 110) = (   0.6668720   0.2886629   2.4336026  )
       111           C   tau( 111) = (   0.8333677   0.0000435   2.3878725  )
       112           C   tau( 112) = (   0.8335100   0.3848966   2.3886722  )
       113           C   tau( 113) = (   0.0000000   0.6735163   2.3413021  )
       114           C   tau( 114) = (   0.0000000   0.8659398   2.4349851  )
       115           C   tau( 115) = (   0.1664759   0.5773226   2.3205108  )
       116           C   tau( 116) = (   0.1667428   0.9622141   2.4548005  )
       117           C_h tau( 117) = (   0.3332094   0.6735984   2.3379001  )
       118           C   tau( 118) = (   0.3332031   0.8660537   2.4345514  )
       119           C   tau( 119) = (   0.5000000   0.5773685   2.3170817  )
       120           C_h tau( 120) = (   0.5000000   0.9623380   2.4538518  )
       121           C   tau( 121) = (   0.6667906   0.6735984   2.3379001  )
       122           C   tau( 122) = (   0.6667969   0.8660537   2.4345514  )
       123           C   tau( 123) = (   0.8335241   0.5773226   2.3205108  )
       124           C   tau( 124) = (   0.8332572   0.9622141   2.4548005  )
       125           C   tau( 125) = (   0.0000000   1.2508867   2.3373580  )
       126           C   tau( 126) = (   0.0000000   1.4433300   2.3361517  )
       127           C   tau( 127) = (   0.1667360   1.1546708   2.3859885  )
       128           C   tau( 128) = (   0.1668939   1.5396104   2.3857175  )
       129           C   tau( 129) = (   0.3335095   1.2509657   2.3399603  )
       130           C   tau( 130) = (   0.3334866   1.4433958   2.3407464  )
       131           C   tau( 131) = (   0.5000000   1.1547731   2.3885095  )
       132           C   tau( 132) = (   0.5000000   1.5396099   2.3901495  )
       133           C   tau( 133) = (   0.6664905   1.2509657   2.3399603  )
       134           C   tau( 134) = (   0.6665134   1.4433958   2.3407464  )
       135           C   tau( 135) = (   0.8332640   1.1546708   2.3859885  )
       136           C   tau( 136) = (   0.8331061   1.5396104   2.3857175  )
       137           C   tau( 137) = (   0.0000000   1.8283510   2.4320981  )
       138           C   tau( 138) = (   0.0000000   2.0207949   2.3383880  )
       139           C   tau( 139) = (   0.1668959   1.7320513   2.4536349  )
       140           C   tau( 140) = (   0.1666186   2.1169980   2.3187623  )
       141           C   tau( 141) = (   0.3334155   1.8282368   2.4361507  )
       142           C   tau( 142) = (   0.3334352   2.0206763   2.3390522  )
       143           C   tau( 143) = (   0.5000000   1.7319961   2.4573080  )
       144           C   tau( 144) = (   0.5000000   2.1168754   2.3192503  )
       145           C   tau( 145) = (   0.6665845   1.8282368   2.4361507  )
       146           C   tau( 146) = (   0.6665648   2.0206763   2.3390522  )
       147           C   tau( 147) = (   0.8331041   1.7320513   2.4536349  )
       148           C   tau( 148) = (   0.8333814   2.1169980   2.3187623  )

     number of k points=     6  gaussian smearing, width (Ry)=  0.1000
                       cart. coord. in units 2pi/alat
        k(    1) = (   0.0000000   0.0000000   0.0000000), wk =   0.2500000
        k(    2) = (   0.0000000  -0.2165064   0.0000000), wk =   0.2500000
        k(    3) = (   0.2500000   0.0000000   0.0000000), wk =   0.5000000
        k(    4) = (   0.2500000  -0.2165064   0.0000000), wk =   0.5000000
        k(    5) = (  -0.5000000   0.0000000   0.0000000), wk =   0.2500000
        k(    6) = (  -0.5000000  -0.2165064   0.0000000), wk =   0.2500000

     Largest allocated arrays     est. size (Mb)     dimensions
     Largest temporary arrays     est. size (Mb)     dimensions

     Initial potential from superposition of free atoms
     Check: negative starting charge=   -0.001798

     starting charge 1266.81751, renormalised to 1293.00000

     negative rho (up, down):  1.836E-03 0.000E+00
     Starting wfc are 1284 randomized atomic wfcs

     Self-consistent Calculation

     iteration #  1     ecut=    80.00 Ry     beta=0.70
     Davidson diagonalization with overlap
     c_bands:  2 eigenvalues not converged
     c_bands:  5 eigenvalues not converged
     c_bands:  3 eigenvalues not converged
     c_bands:  2 eigenvalues not converged
     c_bands:  1 eigenvalues not converged
     ethr =  1.00E-04,  avg # of iterations = 40.0

     negative rho (up, down):  2.761E+01 0.000E+00

     total energy              =   -9652.16498636 Ry
     Harris-Foulkes estimate   =  -17579.09065243 Ry
     estimated scf accuracy    <  183116.50782280 Ry

     iteration #  2     ecut=    80.00 Ry     beta=0.70
     Davidson diagonalization with overlap
     ethr =  1.00E-02,  avg # of iterations = 13.5

[...]

     iteration # 34     ecut=    80.00 Ry     beta=0.70
     Davidson diagonalization with overlap
     c_bands:  1 eigenvalues not converged
     c_bands:  1 eigenvalues not converged
     ethr =  6.67E-08,  avg # of iterations = 11.0

[...]

     total energy              =  -12714.04149147 Ry
     Harris-Foulkes estimate   =  -12714.04149145 Ry
     estimated scf accuracy    <       0.00000002 Ry

     iteration # 45     ecut=    80.00 Ry     beta=0.70
     Davidson diagonalization with overlap
     ethr =  1.64E-12,  avg # of iterations =  2.3

     negative rho (up, down):  2.026E-03 0.000E+00

     End of self-consistent calculation

          k = 0.0000 0.0000 0.0000 (256287 PWs)   bands (ev):

   -16.9416 -16.0465 -15.7306 -15.2512 -14.8491 -14.3349 -14.3044 -13.9167
   -13.8015 -13.7131 -13.6763 -13.4814 -12.9042 -12.8384 -12.8031 -12.7114
   -12.5085 -11.7740 -11.6286 -11.3558 -10.7921 -10.6861  -9.7825  -9.7108
    -9.6792  -9.1558  -9.0822  -8.5421  -8.4335  -8.3257  -8.2083  -7.9046
    -7.7148  -7.5065  -7.4360  -7.3388  -7.2058  -6.9233  -6.8407  -6.5101
    -6.3010  -6.0983  -5.9692  -5.8788  -5.7370  -5.6565  -5.5713  -5.5653
    -5.3826  -5.2342  -5.2059  -5.1446  -5.0562  -4.8842  -4.6956  -4.5899
    -4.5472  -4.4568  -4.2081  -4.0827  -4.0623  -3.9904  -3.8963  -3.7857
    -3.7582  -3.6447  -3.5596  -3.4837  -3.4752  -3.3392  -3.2814  -3.2467
    -3.1671  -3.1487  -3.0865  -3.0845  -3.0829  -3.0805  -3.0479  -2.9792
    -2.9384  -2.8458  -2.7869  -2.7446  -2.7034  -2.6891  -2.6353  -2.5772
    -2.5038  -2.4574  -2.4328  -2.4140  -2.4112  -2.3920  -2.3297  -2.2974
    -2.2639  -2.2631  -2.2287  -2.2285  -2.2282  -2.2275  -2.1317  -2.1027
    -2.0993  -2.0986  -2.0969  -2.0669  -1.9928  -1.9617  -1.9413  -1.9266
    -1.8785  -1.8565  -1.8506  -1.8360  -1.8224  -1.8068  -1.8027  -1.8007
    -1.7805  -1.7469  -1.7368  -1.7327  -1.7260  -1.6675  -1.6460  -1.6411
    -1.6320  -1.6211  -1.6050  -1.6015  -1.5933  -1.5914  -1.5791  -1.5699
    -1.5389  -1.5330  -1.4909  -1.4858  -1.4828  -1.4411  -1.4305  -1.4155
    -1.4053  -1.3932  -1.3865  -1.3766  -1.3388  -1.3386  -1.3282  -1.2895
    -1.2890  -1.2693  -1.2674  -1.2417  -1.2399  -1.1670  -1.1369  -1.1329
    -1.1317  -1.1292  -1.1290  -1.1250  -1.1086  -1.1026  -1.0953  -1.0941
    -1.0916  -1.0894  -1.0873  -1.0862  -1.0801  -1.0778  -1.0720  -1.0329
    -1.0173  -1.0156  -1.0132  -1.0080  -0.9996  -0.9979  -0.9445  -0.9410
    -0.9379  -0.9371  -0.9339  -0.9326  -0.9311  -0.9289  -0.9284  -0.9272
    -0.9261  -0.9256  -0.9254  -0.9197  -0.9194  -0.9148  -0.9054  -0.9028
    -0.8730  -0.8499  -0.7700  -0.7695  -0.7630  -0.7597  -0.7410  -0.7386
    -0.7250  -0.7233  -0.7065  -0.7015  -0.6983  -0.6805  -0.6771  -0.6742
    -0.6622  -0.6484  -0.6416  -0.6397  -0.6376  -0.6371  -0.6348  -0.6297
    -0.6264  -0.6244  -0.5846  -0.5750  -0.5734  -0.5562  -0.5194  -0.5169
    -0.5140  -0.5081  -0.5079  -0.5031  -0.4875  -0.4864  -0.4829  -0.4823
    -0.4811  -0.4805  -0.4801  -0.4794  -0.4702  -0.4640  -0.4639  -0.4525
    -0.4329  -0.4298  -0.4164  -0.4012  -0.3854  -0.3837  -0.3810  -0.3784
    -0.3696  -0.3692  -0.3437  -0.3417  -0.3417  -0.3405  -0.3404  -0.3360
    -0.3206  -0.3197  -0.3013  -0.2999  -0.2991  -0.2966  -0.2957  -0.2952
    -0.2937  -0.2844  -0.2841  -0.2830  -0.2712  -0.2710  -0.2694  -0.2660
    -0.2608  -0.2549  -0.2483  -0.2070  -0.2053  -0.2007  -0.2000  -0.1962
    -0.1748  -0.1655  -0.1630  -0.1622  -0.1572  -0.1532  -0.1438  -0.1394
    -0.1390  -0.1383  -0.1083  -0.0924  -0.0901  -0.0890  -0.0769  -0.0658
    -0.0615  -0.0578  -0.0557  -0.0540  -0.0501  -0.0464  -0.0444  -0.0388
    -0.0333  -0.0316  -0.0300  -0.0276  -0.0248  -0.0233  -0.0172  -0.0145
    -0.0089  -0.0020   0.0077   0.0080   0.0124   0.0228   0.0376   0.0531
     0.0567   0.0790   0.0963   0.1031   0.1112   0.1199   0.1273   0.1476
     0.1549   0.1592   0.1594   0.1596   0.1618   0.1632   0.1744   0.1759
     0.1814   0.1859   0.1956   0.1968   0.2240   0.2443   0.2484   0.2593
     0.2617   0.2635   0.2639   0.2668   0.2891   0.2948   0.2963   0.2979
     0.3013   0.3024   0.3334   0.3348   0.3398   0.3414   0.3527   0.3584
     0.3679   0.3716   0.3756   0.3904   0.3964   0.4096   0.4119   0.4131
     0.4147   0.4164   0.4183   0.4198   0.4217   0.4242   0.4244   0.4407
     0.4433   0.4463   0.4521   0.4554   0.4580   0.4605   0.4651   0.4671
     0.4683   0.4716   0.4771   0.4803   0.4855   0.4877   0.5037   0.5119
     0.5209   0.5254   0.5273   0.5279   0.5310   0.5508   0.5567   0.5658
     0.5686   0.5720   0.5733   0.5736   0.5763   0.5850   0.5895   0.5928
     0.5951   0.5983   0.6079   0.6105   0.6113   0.6191   0.6292   0.6339
     0.6436   0.6492   0.6524   0.6560   0.6610   0.6644   0.6661   0.6677
     0.6717   0.6717   0.6717   0.6727   0.6824   0.6910   0.6982   0.7215
     0.7248   0.7312   0.7342   0.7398   0.7414   0.7440   0.7533   0.7709
     0.7732   0.7912   0.7984   0.7991   0.8038   0.8056   0.8071   0.8117
     0.8168   0.8190   0.8214   0.8256   0.8312   0.8371   0.8385   0.8522
     0.8548   0.8564   0.8585   0.8609   0.8634   0.8746   0.8827   0.8915
     0.8986   0.9054   0.9065   0.9075   0.9148   0.9173   0.9197   0.9210
[...]
     3.7085   3.7167   3.7277   3.7335   3.8734   3.8902   3.9016   3.9048
     3.9114   3.9133   4.0219   4.0414   4.0816   4.1649   4.2163   4.2596
     4.3042   4.3249   4.3751   4.3933   4.4829   4.5695   4.5972   4.6660
     4.6879   5.1596   5.1938   5.2064   5.3799   5.4762   5.5858   5.6102
     5.6547   5.6774   5.8124   5.8640   5.8945   5.9085   6.0056   6.2103
     6.3207   6.3558   6.3769   6.3933   6.4774   6.4788   6.4967   6.5171
     6.5221   6.6453   6.6840   6.6898   6.7062   6.7076   6.8932   6.9265
     6.9711   6.9952   7.0397   7.1188   7.1885   7.2280   7.2404   7.2727
     7.2905   7.2999   7.5870   7.6247   7.6323   7.6672   7.7068   7.7415
     7.7699   7.7771   7.9594   8.0417   8.1847   8.2224   8.2477   8.2515
     8.2649   8.2954   8.3048   8.3501   8.3593   8.3793   8.4282   8.4679
     8.4974   8.5612   8.6029   8.6265   8.6387   8.6623   8.7495   8.7720
     8.7907   8.8068   8.8197   8.8266   8.8887   8.9142   8.9681   9.1079
     9.1275   9.1629   9.2232   9.2366   9.2792   9.2929   9.3134   9.4558
     9.4839   9.4862   9.4927   9.7237   9.7483   9.7566   9.8053   9.9339

[...]

          k = 0.2500-0.2165 0.0000 (256316 PWs)   bands (ev):

[...]

          k =-0.5000 0.0000 0.0000 (256496 PWs)   bands (ev):

[...]

          k =-0.5000-0.2165 0.0000 (256328 PWs)   bands (ev):

   -16.8320 -15.9493 -15.4466 -15.3329 -15.0946 -14.9783 -14.7661 -14.6049
   -14.0310 -13.5212 -13.4447 -13.3200 -12.1992 -12.0795 -11.7706 -11.6543
   -11.6114 -11.4830 -11.4228 -11.3525 -11.2240 -11.1768 -10.9190 -10.8430
   -10.1255  -9.6065  -9.5505  -9.3647  -9.0194  -8.5598  -8.3670  -8.3024
    -8.0400  -7.9293  -7.8468  -7.7344  -6.5905  -6.4156  -6.0393  -5.9886
    -5.8616  -5.4535  -5.2867  -5.2588  -5.2580  -5.2526  -5.2277  -5.0290
    -4.8357  -4.8025  -4.6092  -4.5867  -4.3906  -4.3649  -4.3360  -4.3189
    -4.3117  -4.2888  -4.2662  -4.2643  -4.2544  -4.2498  -4.1233  -4.0248
    -3.9847  -3.9702  -3.9045  -3.7838  -3.7599  -3.7168  -3.6883  -3.6402
    -3.5755  -3.5305  -3.4385  -3.4249  -3.3971  -3.3702  -3.3456  -3.3388
    -3.1298  -3.0459  -3.0009  -2.8276  -2.7467  -2.6557  -2.6555  -2.6510
    -2.6510  -2.6019  -2.5833  -2.5755  -2.5567  -2.5430  -2.4941  -2.3776
    -2.3237  -2.1971  -2.1790  -2.1567  -2.1490  -2.1067  -2.0893  -2.0757
    -2.0308  -1.9965  -1.9932  -1.9491  -1.8811  -1.8809  -1.8800  -1.8784
    -1.6801  -1.6743  -1.6700  -1.6671  -1.6232  -1.5982  -1.5715  -1.5711
    -1.5695  -1.5694  -1.5345  -1.5307  -1.5130  -1.5118  -1.5110  -1.5108
    -1.5050  -1.4913  -1.4652  -1.4649  -1.4636  -1.4633  -1.4603  -1.4598
    -1.4584  -1.4572  -1.4359  -1.4358  -1.4354  -1.4354  -1.4147  -1.3918
    -1.3913  -1.3866  -1.3821  -1.3694  -1.3296  -1.3208  -1.2867  -1.2775
    -1.2685  -1.2683  -1.2679  -1.2679  -1.2605  -1.2536  -1.2454  -1.2440
    -1.2395  -1.2251  -1.2239  -1.2226  -1.2020  -1.2001  -1.1951  -1.1928
    -1.1916  -1.1910  -1.1894  -1.1867  -1.1351  -1.1349  -1.1347  -1.1344
    -1.1181  -1.1179  -1.1178  -1.1177  -1.1169  -1.1165  -1.1164  -1.1161
    -1.0513  -0.9701  -0.9691  -0.9675  -0.9670  -0.9347  -0.9320  -0.9291
    -0.9288  -0.9210  -0.9154  -0.8935  -0.8634  -0.8578  -0.8533  -0.8509
    -0.8508  -0.8503  -0.8489  -0.8404  -0.8389  -0.7893  -0.7833  -0.7812
    -0.7788  -0.7699  -0.7644  -0.7641  -0.7629  -0.7579  -0.7559  -0.7508
    -0.7486  -0.7211  -0.7019  -0.6948  -0.6655  -0.6543  -0.6488  -0.6404
    -0.6391  -0.6361  -0.6088  -0.5841  -0.5826  -0.5762  -0.5758  -0.5372
    -0.5352  -0.5324  -0.5298  -0.5135  -0.5132  -0.5122  -0.5117  -0.5072
    -0.4971  -0.4871  -0.4802  -0.4740  -0.4713  -0.4703  -0.4698  -0.4668
    -0.4484  -0.4377  -0.4081  -0.4063  -0.3534  -0.3533  -0.3530  -0.3528
    -0.3375  -0.3373  -0.3367  -0.3366  -0.3257  -0.3243  -0.3161  -0.3149
    -0.2904  -0.2509  -0.2412  -0.2399  -0.2371  -0.2349  -0.2331  -0.2326
    -0.2304  -0.2269  -0.2158  -0.2081  -0.1896  -0.1896  -0.1891  -0.1887
    -0.1839  -0.1804  -0.1781  -0.1777  -0.1748  -0.1744  -0.1743  -0.1742
    -0.1628  -0.1345  -0.1293  -0.1134  -0.1052  -0.0981  -0.0903  -0.0858
    -0.0816  -0.0791  -0.0734  -0.0533  -0.0410  -0.0389  -0.0380  -0.0130
    -0.0079  -0.0015   0.0007   0.0009   0.0018   0.0021   0.0097   0.0111
     0.0113   0.0141   0.0172   0.0191   0.0195   0.0237   0.0289   0.0293
     0.0296   0.0300   0.0325   0.0375   0.0427   0.0443   0.0496   0.0613
     0.0696   0.0697   0.0731   0.0732   0.0773   0.0781   0.0800   0.0824
     0.1045   0.1311   0.1325   0.1328   0.1337   0.1453   0.1639   0.1661
     0.1677   0.1737   0.2139   0.2209   0.2244   0.2413   0.2426   0.2439
     0.2447   0.2655   0.2667   0.2673   0.2695   0.2710   0.2803   0.2807
     0.2826   0.2829   0.2850   0.2859   0.2860   0.2865   0.2918   0.2955
     0.3035   0.3261   0.3605   0.3621   0.3623   0.3645   0.3673   0.3688
     0.3849   0.3880   0.3898   0.3901   0.3913   0.3944   0.3990   0.3996
     0.4040   0.4194   0.4216   0.4248   0.4255   0.4277   0.4303   0.4315
     0.4404   0.4638   0.4668   0.4676   0.4693   0.4817   0.4832   0.4853
     0.4860   0.4869   0.4922   0.4931   0.4940   0.4952   0.4976   0.4998
     0.5012   0.5029   0.5071   0.5124   0.5188   0.5340   0.5385   0.5436
     0.5511   0.5637   0.5787   0.5836   0.5853   0.5884   0.5976   0.6006
     0.6016   0.6055   0.6058   0.6076   0.6140   0.6152   0.6376   0.6392
     0.6410   0.6458   0.6465   0.6479   0.6504   0.6512   0.6579   0.6600
     0.6910   0.6940   0.7037   0.7058   0.7138   0.7217   0.7260   0.7307
     0.7313   0.7350   0.7367   0.7645   0.7650   0.7655   0.7666   0.7732
     0.7810   0.7854   0.8042   0.8125   0.8362   0.8374   0.8405   0.8444
     0.8448   0.8528   0.8643   0.8654   0.8677   0.8681   0.8715   0.8739
     0.9057   0.9160   0.9288   0.9299   0.9311   0.9325   0.9403   0.9443
[...]
     3.8459   3.8613   4.0560   4.0830   4.1095   4.1170   4.1354   4.1659
     4.1874   4.2404   4.2803   4.3130   4.3461   4.3785   4.4271   4.4373
     4.4665   4.4882   4.5380   4.5529   4.6208   4.6324   4.6847   4.7169
     4.7403   4.8332   4.9588   5.0155   5.0851   5.0933   5.1374   5.1552
     5.1732   5.1886   5.2430   5.2790   5.4156   5.4755   5.5381   5.5613
     5.6182   5.6447   5.6782   5.7019   5.9362   6.0114   6.0411   6.0598
     6.1256   6.2444   6.3162   6.3985   6.6945   6.7048   6.7080   6.7099
     6.9577   6.9612   7.0090   7.0612   7.0670   7.1049   7.1102   7.1241
     7.2407   7.2809   7.2825   7.2960   7.3073   7.3096   7.3384   7.5049
     7.5175   7.5636   7.6955   7.7568   7.7705   7.8522   7.8715   7.9460
     8.0856   8.1167   8.1333   8.1491   8.2150   8.3045   8.4039   8.4479
     8.4778   8.5267   8.5896   8.6132   8.7112   8.7571   8.8270   8.8512
     8.8550   8.8620   8.8694   8.8766   8.8971   8.9042   8.9105   8.9261
     8.9330   9.0375   9.1102   9.1158   9.1214   9.1229   9.2145   9.2207
     9.2603   9.2872   9.4705   9.4919   9.5327   9.5727   9.6483   9.6641

     the Fermi energy is     3.2436 ev

!    total energy              =  -12714.04149144 Ry
     Harris-Foulkes estimate   =  -12714.04149147 Ry
     estimated scf accuracy    <          5.6E-09 Ry

     The total energy is the sum of the following terms:

     one-electron contribution = -109242.13201531 Ry
     hartree contribution      =   55980.39418257 Ry
     xc contribution           =   -4446.58910003 Ry
     ewald contribution        =   45000.76713938 Ry
     Dispersion Correction     =      -2.97802109 Ry
     smearing contrib. (-TS)   =      -3.50367695 Ry

     convergence has been achieved in  45 iterations

     Writing output data file gc.save

     General routines

     Parallel routines

   This run was terminated on:  19:42:14  30Jan2018

   JOB DONE.