     Program PWSCF v.5.4.0 starts on 13Jan2017 at  4: 1:55

     Current dimensions of program PWSCF are:
     Max number of different atomic species (ntypx) = 10
     Max number of k-points (npk) =  40000
     Max angular momentum in pseudopotentials (lmaxx) =  3
     WARNING: atomic wfc #  2 for atom type 4 has zero norm
     WARNING: atomic wfc #  4 for atom type 4 has zero norm
     WARNING: atomic wfc #  5 for atom type 4 has zero norm

     Parameters for Dispersion Correction:
       atom      VdW radius       C_6

        Cu         2.952        374.666
        C_h        2.744         60.710
        C          2.744         60.710
        O          2.536         24.284

     bravais-lattice index     =            0
     lattice parameter (alat)  =      13.9425  a.u.
     unit-cell volume          =   21209.0878 (a.u.)^3
     number of atoms/cell      =          149
     number of atomic types    =            4
     number of electrons       =      1298.00
     number of Kohn-Sham states=          779
     kinetic-energy cutoff     =      80.0000  Ry
     charge density cutoff     =     320.0000  Ry
     convergence threshold     =      1.0E-08
     mixing beta               =       0.7000
     number of iterations used =            8  local-TF  mixing
     Exchange-correlation      =  SLA  PW   PBX  PBC ( 1  4  3  4 0 0)

     celldm(1)=  13.942539  celldm(2)=   0.000000  celldm(3)=   0.000000
     celldm(4)=   0.000000  celldm(5)=   0.000000  celldm(6)=   0.000000

     crystal axes: (cart. coord. in units of alat)
               a(1) = (   1.000000   0.000000   0.000000 )
               a(2) = (   0.000000   2.309401   0.000000 )
               a(3) = (   0.000000   0.000000   3.388418 )

     reciprocal axes: (cart. coord. in units 2 pi/alat)
               b(1) = (  1.000000  0.000000  0.000000 )
               b(2) = (  0.000000  0.433013  0.000000 )
               b(3) = (  0.000000  0.000000  0.295123 )

     PseudoPot. # 1 for Cu read from file:
     /home/549/hxw549/Short/pseudopotentials/Cu.pbe-n-van_ak.UPF
     MD5 check sum: 601f7c30f7467666bec936e0661ce3e1
     Pseudo is Ultrasoft + core correction, Zval = 11.0
     Generated by new atomic code, or converted to UPF format
     Using radial grid of  867 points,  6 beta functions with:
                l(1) =   0
                l(2) =   0
                l(3) =   1
                l(4) =   1
                l(5) =   2
                l(6) =   2
     Q(r) pseudized with  8 coefficients,  rinner =    1.400   1.400   1.400
                                                       1.400   1.400

     PseudoPot. # 2 for C  read from file:
     /home/549/hxw549/Short/pseudopotentials/C.star1s-pbe-mt_gipaw.UPF
     MD5 check sum: ef0cb3dee31bd9e4ba2a832a2c716264
     Pseudo is Norm-conserving, Zval =  5.0
     Generated by new atomic code, or converted to UPF format
     Using radial grid of 1073 points,  1 beta functions with:
                l(1) =   0

     PseudoPot. # 3 for C  read from file:
     /home/549/hxw549/Short/pseudopotentials/C.pbe-mt_gipaw.UPF
     MD5 check sum: 5ac2f21f2c440b14befe521540822c15
     Pseudo is Norm-conserving, Zval =  4.0
     Generated by new atomic code, or converted to UPF format
     Using radial grid of 1073 points,  1 beta functions with:
                l(1) =   0

     PseudoPot. # 4 for O  read from file:
     /home/549/hxw549/Short/pseudopotentials/O.pbe-van_gipaw.UPF
     MD5 check sum: 5ce2a047509d4f331db576c963e74b29
     Pseudo is Ultrasoft, Zval =  6.0
     Generated by new atomic code, or converted to UPF format
     Using radial grid of 1095 points,  4 beta functions with:
                l(1) =   0
                l(2) =   0
                l(3) =   1
                l(4) =   1
     Q(r) pseudized with 0 coefficients

     atomic species   valence    mass     pseudopotential
        Cu            11.00    63.54600     Cu( 1.00)
        C_h            5.00    12.01070     C ( 1.00)
        C              4.00    12.01070     C ( 1.00)
        O              6.00    15.99940     O ( 1.00)

     No symmetry found

   Cartesian axes

     site n.     atom                  positions (alat units)
         1           Cu  tau(   1) = (  -0.0000267   0.0003068   0.9983929  )
         2           Cu  tau(   2) = (   0.2500036   0.2312703   0.9983145  )
         3           Cu  tau(   3) = (   0.4999803   0.0002594   0.9983489  )
         4           Cu  tau(   4) = (   0.7499895   0.2312918   0.9983342  )
         5           Cu  tau(   5) = (   0.0000225   0.4620329   0.9981170  )
         6           Cu  tau(   6) = (   0.2500219   0.6928138   0.9977793  )
         7           Cu  tau(   7) = (   0.5000145   0.4620708   0.9980771  )
         8           Cu  tau(   8) = (   0.7500464   0.6928005   0.9977795  )
         9           Cu  tau(   9) = (   0.0000444   0.9236560   0.9976799  )
        10           Cu  tau(  10) = (   0.2500468   1.1544894   0.9979087  )
        11           Cu  tau(  11) = (   0.5000294   0.9236428   0.9976663  )
        12           Cu  tau(  12) = (   0.7500113   1.1544661   0.9979233  )
        13           Cu  tau(  13) = (  -0.0000030   1.3852325   0.9982653  )
        14           Cu  tau(  14) = (   0.2500078   1.6159458   0.9985773  )
        15           Cu  tau(  15) = (   0.5000250   1.3851939   0.9983781  )
        16           Cu  tau(  16) = (   0.7499695   1.6160612   0.9985012  )
        17           Cu  tau(  17) = (   0.0000343   1.8470384   0.9985232  )
        18           Cu  tau(  18) = (   0.2499384   2.0784489   0.9984548  )
        19           Cu  tau(  19) = (   0.4999091   1.8470915   0.9984673  )
        20           Cu  tau(  20) = (   0.7499959   2.0783416   0.9983130  )
        21           Cu  tau(  21) = (   0.0000812   0.2314093   1.2467788  )
        22           Cu  tau(  22) = (   0.2500218   0.0003249   1.2465774  )
        23           Cu  tau(  23) = (   0.5000485   0.2314075   1.2466680  )
        24           Cu  tau(  24) = (   0.7500266   0.0001653   1.2463696  )
        25           Cu  tau(  25) = (   0.0001623   0.6931214   1.2464311  )
        26           Cu  tau(  26) = (   0.2501033   0.4623525   1.2466471  )
        27           Cu  tau(  27) = (   0.5001337   0.6931028   1.2464251  )
        28           Cu  tau(  28) = (   0.7501184   0.4623956   1.2466785  )
        29           Cu  tau(  29) = (   0.0001568   1.1541245   1.2464838  )
        30           Cu  tau(  30) = (   0.2501615   0.9236200   1.2463252  )
        31           Cu  tau(  31) = (   0.5001177   1.1540045   1.2466424  )
        32           Cu  tau(  32) = (   0.7501390   0.9235859   1.2463014  )
        33           Cu  tau(  33) = (   0.0000729   1.6157545   1.2468989  )
        34           Cu  tau(  34) = (   0.2501093   1.3847381   1.2469554  )
        35           Cu  tau(  35) = (   0.5000326   1.6158869   1.2468953  )
        36           Cu  tau(  36) = (   0.7500890   1.3848287   1.2468265  )
        37           Cu  tau(  37) = (   0.0000323   2.0783589   1.2463249  )
        38           Cu  tau(  38) = (   0.2500077   1.8470268   1.2466081  )
        39           Cu  tau(  39) = (   0.4999755   2.0783445   1.2462814  )
        40           Cu  tau(  40) = (   0.7500223   1.8470837   1.2465241  )
        41           Cu  tau(  41) = (   0.0002124  -0.0001420   1.4956913  )
        42           Cu  tau(  42) = (   0.2502432   0.2315683   1.4963144  )
        43           Cu  tau(  43) = (   0.5000580  -0.0001022   1.4955702  )
        44           Cu  tau(  44) = (   0.7501834   0.2311697   1.4957919  )
        45           Cu  tau(  45) = (   0.0003849   0.4627079   1.4963383  )
        46           Cu  tau(  46) = (   0.2503961   0.6934059   1.4964363  )
        47           Cu  tau(  47) = (   0.5002404   0.4626228   1.4962459  )
        48           Cu  tau(  48) = (   0.7504437   0.6934576   1.4964425  )
        49           Cu  tau(  49) = (   0.0004625   0.9237210   1.4966639  )
        50           Cu  tau(  50) = (   0.2503244   1.1534720   1.4969567  )
        51           Cu  tau(  51) = (   0.5003991   0.9233981   1.4968565  )
        52           Cu  tau(  52) = (   0.7504645   1.1536830   1.4965640  )
        53           Cu  tau(  53) = (   0.0003821   1.3842432   1.4966806  )
        54           Cu  tau(  54) = (   0.2501321   1.6156588   1.4962873  )
        55           Cu  tau(  55) = (   0.5002113   1.3843989   1.4963900  )
        56           Cu  tau(  56) = (   0.7502647   1.6157441   1.4960739  )
        57           Cu  tau(  57) = (   0.0001207   1.8471506   1.4957144  )
        58           Cu  tau(  58) = (   0.2500858   2.0782753   1.4956306  )
        59           Cu  tau(  59) = (   0.5001251   1.8473075   1.4957920  )
        60           Cu  tau(  60) = (   0.7501138   2.0783207   1.4955742  )
[...]
       115           C   tau( 115) = (   0.1655204   0.5765016   2.3784056  )
       116           C   tau( 116) = (   0.1624509   0.9643662   2.3844256  )
       117           C   tau( 117) = (   0.3316218   0.6703151   2.3800734  )
       118           C   tau( 118) = (   0.3292206   0.8643671   2.4184809  )
       119           C   tau( 119) = (   0.4987612   0.5771637   2.3788923  )
       120           C   tau( 120) = (   0.5021138   0.9644200   2.4216837  )
       121           O   tau( 121) = (   0.4140165   0.9101453   2.5990232  )
       122           C   tau( 122) = (   0.6663442   0.6742083   2.3806324  )
       123           C   tau( 123) = (   0.6689595   0.8654305   2.3851659  )
       124           C   tau( 124) = (   0.8329766   0.5774622   2.3796904  )
       125           C   tau( 125) = (   0.8321191   0.9628646   2.3782389  )
       126           C   tau( 126) = (  -0.0010921   1.2520160   2.3785180  )
       127           C   tau( 127) = (  -0.0007197   1.4446627   2.3773574  )
       128           C   tau( 128) = (   0.1654289   1.1553812   2.3831881  )
       129           C   tau( 129) = (   0.1661398   1.5408122   2.3809588  )
       130           C_h tau( 130) = (   0.3332591   1.2524179   2.3871897  )
       131           C   tau( 131) = (   0.3327347   1.4447081   2.3843921  )
       132           C   tau( 132) = (   0.4999577   1.1596325   2.3913607  )
       133           C   tau( 133) = (   0.4993062   1.5408861   2.3859785  )
       134           C   tau( 134) = (   0.6656079   1.2530081   2.3829609  )
       135           C   tau( 135) = (   0.6659456   1.4454088   2.3819018  )
       136           C   tau( 136) = (   0.8327273   1.1559617   2.3795433  )
       137           C   tau( 137) = (   0.8326004   1.5410745   2.3794124  )
       138           C   tau( 138) = (  -0.0005841   1.8293317   2.3831804  )
       139           C   tau( 139) = (  -0.0006107   2.0215344   2.3872925  )
       140           C   tau( 140) = (   0.1662470   1.7330653   2.3837749  )
       141           C   tau( 141) = (   0.1660003   2.1175423   2.3879995  )
       142           C   tau( 142) = (   0.3327657   1.8291420   2.3882670  )
       143           C   tau( 143) = (   0.3327961   2.0213806   2.3890482  )
       144           C   tau( 144) = (   0.4993270   1.7331699   2.3878917  )
       145           C   tau( 145) = (   0.4993850   2.1173816   2.3892301  )
       146           C   tau( 146) = (   0.6659668   1.8291231   2.3874666  )
       147           C   tau( 147) = (   0.6659485   2.0213555   2.3883541  )
       148           C   tau( 148) = (   0.8325583   1.7332547   2.3830305  )
       149           C   tau( 149) = (   0.8327361   2.1174924   2.3876620  )

     number of k points=     6  gaussian smearing, width (Ry)=  0.1000
                       cart. coord. in units 2pi/alat
        k(    1) = (   0.0000000   0.0000000   0.0000000), wk =   0.2500000
        k(    2) = (   0.0000000  -0.2165064   0.0000000), wk =   0.2500000
        k(    3) = (   0.2500000   0.0000000   0.0000000), wk =   0.5000000
        k(    4) = (   0.2500000  -0.2165064   0.0000000), wk =   0.5000000
        k(    5) = (  -0.5000000   0.0000000   0.0000000), wk =   0.2500000
        k(    6) = (  -0.5000000  -0.2165064   0.0000000), wk =   0.2500000

     Largest allocated arrays     est. size (Mb)     dimensions
     Largest temporary arrays     est. size (Mb)     dimensions

     Initial potential from superposition of free atoms
     Check: negative starting charge=   -0.001801

     starting charge 1272.81751, renormalised to 1298.00000

     negative rho (up, down):  1.836E-03 0.000E+00
     Starting wfc are 1288 randomized atomic wfcs

     Self-consistent Calculation

     iteration #  1     ecut=    80.00 Ry     beta=0.70
     Davidson diagonalization with overlap
     c_bands:  2 eigenvalues not converged
     c_bands:  5 eigenvalues not converged
     ethr =  1.00E-04,  avg # of iterations = 34.7

     negative rho (up, down):  2.543E+01 0.000E+00

     total energy              =   -9765.76615626 Ry
     Harris-Foulkes estimate   =  -17289.33101903 Ry
     estimated scf accuracy    <  178093.27058612 Ry

     iteration #  2     ecut=    80.00 Ry     beta=0.70
     Davidson diagonalization with overlap
     ethr =  1.00E-02,  avg # of iterations = 11.3

[...]

     iteration # 40     ecut=    80.00 Ry     beta=0.70
     Davidson diagonalization with overlap
     c_bands:  1 eigenvalues not converged
     ethr =  1.11E-07,  avg # of iterations = 11.8

[...]

     total energy              =  -12738.83094068 Ry
     Harris-Foulkes estimate   =  -12738.83094073 Ry
     estimated scf accuracy    <       0.00000004 Ry

     iteration # 50     ecut=    80.00 Ry     beta=0.70
     Davidson diagonalization with overlap
     ethr =  3.20E-12,  avg # of iterations =  2.3

     negative rho (up, down):  2.090E-03 0.000E+00

     End of self-consistent calculation

          k = 0.0000 0.0000 0.0000 (256287 PWs)   bands (ev):

   -19.1965 -17.1100 -16.2778 -15.9458 -15.4274 -14.9881 -14.7631 -14.6105
   -14.2976 -14.2419 -14.1628 -13.9890 -13.3887 -13.2371 -13.1810 -13.1657
   -13.1246 -12.5926 -11.5676 -11.5619 -11.4803 -11.3285 -11.0961 -10.3653
    -9.8021  -9.7936  -9.6225  -9.4529  -9.0258  -8.8232  -8.7224  -8.5716
    -8.0725  -7.9453  -7.8017  -7.7143  -7.6520  -7.5992  -7.5698  -7.5208
    -6.4152  -6.3994  -6.2321  -6.0829  -6.0723  -6.0215  -5.9997  -5.9342
    -5.8786  -5.5460  -5.5344  -5.2746  -4.9651  -4.9280  -4.8693  -4.7260
    -4.6439  -4.6207  -4.5328  -4.2997  -4.1590  -4.1412  -4.0415  -4.0386
    -4.0178  -3.7315  -3.6388  -3.5990  -3.5742  -3.4932  -3.4637  -3.4524
    -3.4365  -3.2948  -3.2409  -3.2070  -3.1742  -3.1618  -3.0940  -3.0605
    -3.0559  -3.0479  -3.0406  -2.9074  -2.8760  -2.8572  -2.8329  -2.7938
    -2.7885  -2.7754  -2.7321  -2.6542  -2.5840  -2.4739  -2.4323  -2.3958
    -2.3898  -2.3442  -2.2805  -2.2445  -2.2435  -2.2173  -2.2044  -2.2038
    -2.2036  -2.2030  -2.1985  -2.1388  -2.0750  -2.0744  -2.0716  -2.0709
    -2.0370  -2.0088  -1.8925  -1.8505  -1.8286  -1.7931  -1.7902  -1.7895
    -1.7819  -1.7528  -1.7325  -1.7238  -1.7105  -1.7090  -1.6979  -1.6528
    -1.6460  -1.6223  -1.6160  -1.6140  -1.6062  -1.6022  -1.5892  -1.5796
    -1.5671  -1.5658  -1.5594  -1.5152  -1.4942  -1.4889  -1.4675  -1.4581
    -1.4340  -1.4292  -1.4044  -1.3761  -1.3505  -1.3158  -1.3143  -1.3026
    -1.2851  -1.2636  -1.2624  -1.2435  -1.2410  -1.2274  -1.2181  -1.2156
    -1.1858  -1.1732  -1.1514  -1.1061  -1.1004  -1.0965  -1.0928  -1.0854
    -1.0773  -1.0746  -1.0731  -1.0727  -1.0683  -1.0680  -1.0607  -1.0551
    -1.0500  -1.0280  -1.0146  -1.0036  -0.9865  -0.9837  -0.9778  -0.9712
    -0.9707  -0.9682  -0.9197  -0.9111  -0.9091  -0.9081  -0.9076  -0.9062
    -0.9056  -0.9035  -0.9031  -0.9010  -0.8997  -0.8994  -0.8986  -0.8963
    -0.8937  -0.8934  -0.8882  -0.8799  -0.8782  -0.8575  -0.8374  -0.7423
    -0.7409  -0.7351  -0.7348  -0.7309  -0.7134  -0.7114  -0.6938  -0.6933
    -0.6735  -0.6713  -0.6663  -0.6562  -0.6531  -0.6515  -0.6396  -0.6175
    -0.6163  -0.6127  -0.6123  -0.6056  -0.6051  -0.5945  -0.5936  -0.5601
    -0.5450  -0.5433  -0.4903  -0.4901  -0.4806  -0.4792  -0.4766  -0.4757
    -0.4623  -0.4612  -0.4568  -0.4559  -0.4556  -0.4551  -0.4522  -0.4515
    -0.4367  -0.4365  -0.4353  -0.4283  -0.4273  -0.4032  -0.4025  -0.4022
    -0.3532  -0.3501  -0.3473  -0.3427  -0.3426  -0.3170  -0.3168  -0.3146
    -0.3144  -0.3065  -0.2989  -0.2961  -0.2940  -0.2938  -0.2759  -0.2731
    -0.2706  -0.2693  -0.2671  -0.2665  -0.2655  -0.2628  -0.2614  -0.2601
    -0.2570  -0.2418  -0.2416  -0.2394  -0.2383  -0.2178  -0.1851  -0.1731
    -0.1702  -0.1699  -0.1694  -0.1668  -0.1248  -0.1235  -0.1200  -0.1195
    -0.1141  -0.1138  -0.1133  -0.1127  -0.1121  -0.1009  -0.0958  -0.0831
    -0.0618  -0.0616  -0.0589  -0.0572  -0.0509  -0.0320  -0.0317  -0.0293
    -0.0275  -0.0255  -0.0198  -0.0065  -0.0061  -0.0052  -0.0050  -0.0020
    -0.0015   0.0114   0.0120   0.0123   0.0128   0.0178   0.0227   0.0232
     0.0307   0.0503   0.0519   0.0641   0.0840   0.0845   0.1096   0.1131
     0.1264   0.1376   0.1453   0.1724   0.1831   0.1847   0.1855   0.1910
     0.1928   0.1944   0.2174   0.2196   0.2219   0.2219   0.2236   0.2285
     0.2332   0.2359   0.2757   0.2895   0.2899   0.2922   0.2959   0.2999
     0.3009   0.3257   0.3312   0.3318   0.3326   0.3329   0.3461   0.3551
     0.3641   0.3686   0.3766   0.3822   0.3885   0.3892   0.3901   0.4236
     0.4278   0.4389   0.4414   0.4440   0.4477   0.4482   0.4566   0.4596
     0.4711   0.4770   0.4790   0.4821   0.4831   0.4840   0.4860   0.4880
     0.4925   0.4947   0.4974   0.4989   0.5044   0.5047   0.5086   0.5131
     0.5147   0.5444   0.5545   0.5548   0.5585   0.5685   0.5707   0.5934
     0.5967   0.5972   0.6004   0.6026   0.6029   0.6037   0.6055   0.6072
     0.6173   0.6223   0.6261   0.6278   0.6295   0.6329   0.6364   0.6365
     0.6459   0.6494   0.6536   0.6659   0.6689   0.6712   0.6740   0.6827
     0.6836   0.6911   0.6959   0.6978   0.6979   0.7025   0.7039   0.7047
     0.7070   0.7166   0.7236   0.7543   0.7549   0.7664   0.7675   0.7699
     0.7709   0.7728   0.7743   0.7904   0.8045   0.8048   0.8177   0.8249
     0.8251   0.8258   0.8369   0.8391   0.8400   0.8480   0.8493   0.8512
     0.8530   0.8573   0.8698   0.8860   0.8878   0.8899   0.8905   0.8911
     0.8928   0.9075   0.9148   0.9257   0.9321   0.9345   0.9361   0.9461
[...]
     3.9148   3.9535   3.9562   3.9591   3.9636   3.9655   3.9724   3.9770
     4.0567   4.2041   4.2118   4.2175   4.2623   4.4020   4.5750   4.7148
     4.8369   4.8491   5.0666   5.2491   5.3687   5.3758   5.3990   5.6296
     5.6740   5.6874   5.6927   5.8104   5.8817   5.9417   6.2228   6.3209
     6.3321   6.3600   6.3812   6.4366   6.4438   6.4571   6.4675   6.5555
     6.6512   6.6594   6.7073   6.7391   6.7532   6.8130   6.8974   6.9423
     6.9948   7.0049   7.0547   7.0659   7.1126   7.3049   7.3108   7.5219
     7.5321   7.5815   7.6551   7.6593   7.6630   7.6765   7.7271   8.0662
     8.1243   8.1561   8.1790   8.2494   8.2851   8.2874   8.2913   8.3025
     8.3073   8.3505   8.3606   8.3640   8.3788   8.4361   8.5093   8.5212
     8.6224   8.6277   8.6297   8.6395   8.7547   8.7897   8.7947   8.8008
     8.8069   8.8365   8.8439   9.0420   9.0743   9.0832   9.0849   9.0927
     9.1018   9.1788   9.2674   9.2911   9.2990   9.4099   9.5256   9.5308
     9.6313   9.6454   9.7318   9.7549   9.7799   9.8188   9.9697   9.9930
     9.9980  10.1284  10.1386

[...]

          k = 0.2500-0.2165 0.0000 (256316 PWs)   bands (ev):

[...]

          k =-0.5000 0.0000 0.0000 (256496 PWs)   bands (ev):

[...]

          k =-0.5000-0.2165 0.0000 (256328 PWs)   bands (ev):

   -19.1908 -16.9980 -15.9975 -15.8431 -15.7740 -15.3987 -15.1855 -15.1635
   -14.8007 -13.9429 -13.7538 -13.7339 -13.4936 -12.7098 -12.4143 -12.0488
   -12.0411 -11.8381 -11.7312 -11.6603 -11.6085 -11.5879 -11.5329 -11.4631
   -11.0389 -10.0735  -9.9612  -9.7711  -9.7540  -9.1939  -8.8961  -8.8263
    -8.7867  -8.3154  -8.2492  -8.0494  -8.0341  -6.5771  -6.4039  -6.2378
    -5.9930  -5.9268  -5.6789  -5.4602  -5.3959  -5.3604  -5.2979  -5.2444
    -5.2344  -5.2321  -5.2315  -5.1060  -5.0623  -4.8805  -4.5924  -4.5233
    -4.4934  -4.4009  -4.3866  -4.3598  -4.2935  -4.2608  -4.2510  -4.2494
    -4.2468  -4.2067  -4.1040  -4.0100  -3.9703  -3.9350  -3.9140  -3.8861
    -3.8284  -3.7859  -3.7508  -3.6723  -3.6401  -3.5946  -3.5226  -3.5140
    -3.4350  -3.2217  -3.1452  -3.1132  -3.0704  -2.8583  -2.6888  -2.6405
    -2.6317  -2.6308  -2.6302  -2.6117  -2.5935  -2.5764  -2.5706  -2.5602
    -2.5181  -2.4254  -2.2731  -2.1841  -2.1627  -2.1509  -2.1457  -2.1264
    -2.1025  -2.0702  -2.0654  -2.0632  -2.0613  -2.0056  -1.8906  -1.8567
    -1.8554  -1.8536  -1.8488  -1.7979  -1.7871  -1.6925  -1.6223  -1.5720
    -1.5571  -1.5457  -1.5455  -1.5448  -1.5446  -1.5224  -1.5071  -1.5057
    -1.5050  -1.4869  -1.4857  -1.4843  -1.4843  -1.4685  -1.4380  -1.4374
    -1.4368  -1.4359  -1.4354  -1.4345  -1.4319  -1.4279  -1.4106  -1.4103
    -1.4096  -1.4092  -1.3619  -1.3595  -1.3592  -1.3562  -1.3317  -1.2889
    -1.2866  -1.2821  -1.2778  -1.2432  -1.2425  -1.2421  -1.2418  -1.2274
    -1.2246  -1.2236  -1.2214  -1.1863  -1.1766  -1.1729  -1.1724  -1.1715
    -1.1680  -1.1675  -1.1672  -1.1661  -1.1624  -1.1499  -1.1398  -1.1209
    -1.1115  -1.1111  -1.1070  -1.1047  -1.0945  -1.0942  -1.0913  -1.0904
    -1.0898  -1.0888  -1.0884  -1.0875  -1.0868  -1.0677  -0.9366  -0.9356
    -0.9350  -0.9323  -0.9050  -0.9047  -0.9044  -0.9039  -0.8554  -0.8242
    -0.8239  -0.8218  -0.8207  -0.8192  -0.8168  -0.8150  -0.8142  -0.8137
    -0.8131  -0.8104  -0.7556  -0.7522  -0.7518  -0.7509  -0.7427  -0.7425
    -0.7410  -0.7407  -0.7240  -0.7209  -0.7183  -0.7147  -0.6814  -0.6314
    -0.6276  -0.6237  -0.6212  -0.6209  -0.6195  -0.6105  -0.5528  -0.5509
    -0.5508  -0.5496  -0.5378  -0.5021  -0.5006  -0.5000  -0.4966  -0.4807
    -0.4806  -0.4797  -0.4787  -0.4613  -0.4538  -0.4484  -0.4420  -0.4412
    -0.4406  -0.4396  -0.4356  -0.4073  -0.4050  -0.4015  -0.3650  -0.3272
    -0.3268  -0.3239  -0.3231  -0.3096  -0.3090  -0.3086  -0.3082  -0.2969
    -0.2926  -0.2917  -0.2879  -0.2785  -0.2109  -0.2097  -0.2090  -0.2062
    -0.2056  -0.2050  -0.2035  -0.2032  -0.2017  -0.2003  -0.1983  -0.1884
    -0.1640  -0.1638  -0.1638  -0.1630  -0.1519  -0.1516  -0.1511  -0.1508
    -0.1475  -0.1473  -0.1458  -0.1451  -0.0791  -0.0787  -0.0778  -0.0763
    -0.0540  -0.0524  -0.0515  -0.0493  -0.0080  -0.0073  -0.0006   0.0026
     0.0071   0.0222   0.0245   0.0283   0.0288   0.0300   0.0307   0.0346
     0.0371   0.0380   0.0393   0.0405   0.0415   0.0438   0.0480   0.0486
     0.0497   0.0515   0.0550   0.0551   0.0561   0.0564   0.0637   0.0711
     0.0717   0.0730   0.0744   0.0997   0.0997   0.0998   0.1001   0.1084
     0.1092   0.1107   0.1119   0.1578   0.1588   0.1590   0.1598   0.1688
     0.1909   0.1916   0.1927   0.1943   0.2252   0.2481   0.2621   0.2713
     0.2718   0.2738   0.2765   0.2773   0.2840   0.2881   0.2917   0.2930
     0.2943   0.2974   0.3053   0.3062   0.3080   0.3103   0.3133   0.3143
     0.3160   0.3161   0.3181   0.3186   0.3210   0.3269   0.3323   0.3346
     0.3436   0.3909   0.3939   0.3977   0.4009   0.4030   0.4048   0.4050
     0.4071   0.4178   0.4181   0.4183   0.4188   0.4455   0.4516   0.4559
     0.4565   0.4572   0.4585   0.4617   0.4630   0.4804   0.4929   0.4999
     0.5007   0.5020   0.5037   0.5057   0.5147   0.5150   0.5163   0.5170
     0.5177   0.5229   0.5233   0.5242   0.5262   0.5362   0.5373   0.5382
     0.5408   0.5437   0.5495   0.5547   0.5567   0.5975   0.6062   0.6182
     0.6247   0.6270   0.6288   0.6297   0.6309   0.6314   0.6321   0.6336
     0.6373   0.6405   0.6437   0.6461   0.6580   0.6762   0.6770   0.6773
     0.6778   0.6779   0.6788   0.6794   0.6814   0.6946   0.7202   0.7277
     0.7303   0.7319   0.7479   0.7589   0.7598   0.7606   0.7616   0.7642
     0.7700   0.7957   0.7962   0.7964   0.7979   0.8179   0.8213   0.8221
     0.8230   0.8708   0.8723   0.8732   0.8740   0.8754   0.8852   0.9059
     0.9070   0.9077   0.9131   0.9426   0.9510   0.9584   0.9597   0.9615
[...]
     4.2154   4.2859   4.3032   4.3132   4.3294   4.5128   4.5172   4.5206
     4.5222   4.5451   4.5700   4.6264   4.6675   4.8368   4.8722   4.9225
     4.9706   5.0123   5.0492   5.1176   5.1214   5.1254   5.1438   5.1577
     5.2133   5.2254   5.2682   5.3063   5.3193   5.3253   5.3646   5.3917
     5.6555   5.6899   5.6982   5.6992   5.7022   5.7093   5.8126   5.8541
     5.8640   5.8654   6.0985   6.7109   6.7205   6.7424   6.7467   6.9391
     7.0687   7.0761   7.0814   7.0892   7.1056   7.1133   7.1146   7.1673
     7.2387   7.2547   7.2593   7.2911   7.3154   7.3198   7.3227   7.3514
     7.5499   7.5881   7.5941   7.6323   7.8441   7.9199   7.9386   7.9511
     7.9566   7.9770   8.1038   8.1760   8.1861   8.2018   8.2466   8.3841
     8.3947   8.5021   8.6031   8.8218   8.8432   8.8446   8.8461   8.8687
     8.8800   8.8829   8.8925   8.9066   8.9167   8.9183   8.9198   9.0912
     9.1268   9.1288   9.1426   9.1702   9.4168   9.4374   9.4602   9.4864
     9.4878   9.5116   9.5251   9.5490   9.5519   9.5567   9.5911   9.8157
    10.0116  10.0173  10.0617

     the Fermi energy is     3.2699 ev

!    total energy              =  -12738.83094067 Ry
     Harris-Foulkes estimate   =  -12738.83094069 Ry
     estimated scf accuracy    <          8.3E-09 Ry

     The total energy is the sum of the following terms:

     one-electron contribution = -109179.40697501 Ry
     hartree contribution      =   55951.93757078 Ry
     xc contribution           =   -4454.79722657 Ry
     ewald contribution        =   44949.80283567 Ry
     Dispersion Correction     =      -3.00103089 Ry
     smearing contrib. (-TS)   =      -3.36611465 Ry

     convergence has been achieved in  50 iterations

     Writing output data file gc.save

     General routines

     Parallel routines

   This run was terminated on:   8: 2:34  13Jan2017

   JOB DONE.