     Program PWSCF v.5.4.0 starts on  7Nov2017 at 13:36:16

     Current dimensions of program PWSCF are:
     Max number of different atomic species (ntypx) = 10
     Max number of k-points (npk) =  40000
     Max angular momentum in pseudopotentials (lmaxx) =  3
     WARNING: atomic wfc #  2 for atom type 4 has zero norm
     WARNING: atomic wfc #  4 for atom type 4 has zero norm
     WARNING: atomic wfc #  5 for atom type 4 has zero norm

     Parameters for Dispersion Correction:
       atom      VdW radius       C_6

        Cu         2.952        374.666
        C_h        2.744         60.710
        C          2.744         60.710
        O          2.536         24.284
        H          1.892          4.857

     bravais-lattice index     =            0
     lattice parameter (alat)  =      13.9425  a.u.
     unit-cell volume          =   21209.0878 (a.u.)^3
     number of atoms/cell      =           50
     number of atomic types    =            5
     number of electrons       =       202.00
     number of Kohn-Sham states=          121
     kinetic-energy cutoff     =      80.0000  Ry
     charge density cutoff     =     320.0000  Ry
     convergence threshold     =      1.0E-08
     mixing beta               =       0.7000
     number of iterations used =            8  local-TF  mixing
     Exchange-correlation      =  SLA  PW   PBE  PBE ( 1  4  3  4 0 0)

     celldm(1)=  13.942539  celldm(2)=   0.000000  celldm(3)=   0.000000
     celldm(4)=   0.000000  celldm(5)=   0.000000  celldm(6)=   0.000000

     crystal axes: (cart. coord. in units of alat)
               a(1) = (   1.000000   0.000000   0.000000 )
               a(2) = (   0.000000   2.309401   0.000000 )
               a(3) = (   0.000000   0.000000   3.388418 )

     reciprocal axes: (cart. coord. in units 2 pi/alat)
               b(1) = (  1.000000  0.000000  0.000000 )
               b(2) = (  0.000000  0.433013  0.000000 )
               b(3) = (  0.000000  0.000000  0.295123 )

     PseudoPot. # 1 for Cu read from file:
     /home/549/hxw549/Short/pseudopotentials/Cu.pbe-n-van_ak.UPF
     MD5 check sum: 601f7c30f7467666bec936e0661ce3e1
     Pseudo is Ultrasoft + core correction, Zval = 11.0
     Generated by new atomic code, or converted to UPF format
     Using radial grid of  867 points,  6 beta functions with:
                l(1) =   0
                l(2) =   0
                l(3) =   1
                l(4) =   1
                l(5) =   2
                l(6) =   2
     Q(r) pseudized with  8 coefficients,  rinner =    1.400   1.400   1.400
                                                       1.400   1.400

     PseudoPot. # 2 for C  read from file:
     /home/549/hxw549/Short/pseudopotentials/C.star1s-pbe-mt_gipaw.UPF
     MD5 check sum: ef0cb3dee31bd9e4ba2a832a2c716264
     Pseudo is Norm-conserving, Zval =  5.0
     Generated by new atomic code, or converted to UPF format
     Using radial grid of 1073 points,  1 beta functions with:
                l(1) =   0

     PseudoPot. # 3 for C  read from file:
     /home/549/hxw549/Short/pseudopotentials/C.pbe-mt_gipaw.UPF
     MD5 check sum: 5ac2f21f2c440b14befe521540822c15
     Pseudo is Norm-conserving, Zval =  4.0
     Generated by new atomic code, or converted to UPF format
     Using radial grid of 1073 points,  1 beta functions with:
                l(1) =   0

     PseudoPot. # 4 for O  read from file:
     /home/549/hxw549/Short/pseudopotentials/O.pbe-van_gipaw.UPF
     MD5 check sum: 5ce2a047509d4f331db576c963e74b29
     Pseudo is Ultrasoft, Zval =  6.0
     Generated by new atomic code, or converted to UPF format
     Using radial grid of 1095 points,  4 beta functions with:
                l(1) =   0
                l(2) =   0
                l(3) =   1
                l(4) =   1
     Q(r) pseudized with 0 coefficients

     PseudoPot. # 5 for H  read from file:
     /home/549/hxw549/Short/pseudopotentials/H.pbe-van_ak.UPF
     MD5 check sum: 077eb6d537518a38cb46c6de387227b7
     Pseudo is Ultrasoft, Zval =  1.0
     Generated by new atomic code, or converted to UPF format
     Using radial grid of  615 points,  1 beta functions with:
                l(1) =   0
     Q(r) pseudized with  8 coefficients,  rinner =    0.800

     atomic species   valence    mass     pseudopotential
        Cu            11.00    63.54600     Cu( 1.00)
        C_h            5.00    12.01070     C ( 1.00)
        C              4.00    12.01070     C ( 1.00)
        O              6.00    15.99940     O ( 1.00)
        H              1.00     1.00783     H ( 1.00)

     No symmetry found

   Cartesian axes

     site n.     atom                  positions (alat units)
         1           C   tau(   1) = (   0.0003514   0.0996206   2.3875980  )
         2           C   tau(   2) = (   0.0003701   0.2920050   2.3890198  )
         3           C   tau(   3) = (   0.1669612   0.0033417   2.3866707  )
         4           C   tau(   4) = (   0.1668783   0.3881831   2.3878569  )
         5           C   tau(   5) = (   0.3334610   0.0995345   2.3840961  )
         6           C   tau(   6) = (   0.3334624   0.2919976   2.3846407  )
         7           C   tau(   7) = (   0.5003433   0.0032210   2.3815949  )
         8           C   tau(   8) = (   0.5003848   0.3882447   2.3835900  )
         9           C   tau(   9) = (   0.6672318   0.0995321   2.3842977  )
        10           C   tau(  10) = (   0.6672623   0.2919796   2.3848652  )
        11           C   tau(  11) = (   0.8337338   0.0033419   2.3867885  )
        12           C   tau(  12) = (   0.8338733   0.3881847   2.3880842  )
        13           C   tau(  13) = (   0.0003755   0.6768170   2.3872017  )
        14           C   tau(  14) = (   0.0003705   0.8692143   2.3829758  )
        15           C   tau(  15) = (   0.1668213   0.5806199   2.3868163  )
        16           C   tau(  16) = (   0.1671458   0.9654808   2.3827998  )
        17           C   tau(  17) = (   0.3336031   0.6768600   2.3840505  )
        18           C   tau(  18) = (   0.3335861   0.8693009   2.3828900  )
        19           C   tau(  19) = (   0.5003895   0.5806735   2.3843175  )
        20           C   tau(  20) = (   0.5004091   0.9655913   2.3819279  )
        21           C   tau(  21) = (   0.6671518   0.6768504   2.3841477  )
        22           C   tau(  22) = (   0.6671644   0.8692819   2.3832393  )
        23           C   tau(  23) = (   0.8339022   0.5806086   2.3869446  )
        24           C   tau(  24) = (   0.8336023   0.9654704   2.3831168  )
        25           C   tau(  25) = (   0.0004181   1.2541496   2.3826128  )
        26           C   tau(  26) = (   0.0003993   1.4466513   2.3825401  )
        27           C   tau(  27) = (   0.1671589   1.1579558   2.3821526  )
        28           C   tau(  28) = (   0.1673137   1.5428735   2.3850149  )
        29           C   tau(  29) = (   0.3339620   1.2542045   2.3853071  )
        30           C   tau(  30) = (   0.3338989   1.4466168   2.3880294  )
        31           C   tau(  31) = (   0.5004018   1.1580276   2.3849937  )
        32           C   tau(  32) = (   0.5004021   1.5428398   2.3904590  )
        33           C   tau(  33) = (   0.6668434   1.2542120   2.3856468  )
        34           C   tau(  34) = (   0.6668966   1.4466375   2.3882526  )
        35           C   tau(  35) = (   0.8336471   1.1579389   2.3824963  )
        36           C   tau(  36) = (   0.8335007   1.5428799   2.3852986  )
        37           C   tau(  37) = (   0.0003615   1.8316508   2.3835264  )
        38           C   tau(  38) = (   0.0003333   2.0241360   2.3864695  )
        39           C   tau(  39) = (   0.1672436   1.7353275   2.3855411  )
        40           C   tau(  40) = (   0.1669289   2.1203047   2.3860356  )
        41           C   tau(  41) = (   0.3337845   1.8314735   2.3877347  )
        42           C   tau(  42) = (   0.3337475   2.0239656   2.3853679  )
        43           C   tau(  43) = (   0.5003620   1.7352461   2.3894686  )
        44           C   tau(  44) = (   0.5003277   2.1201495   2.3841265  )
        45           C   tau(  45) = (   0.6669386   1.8314724   2.3878035  )
        46           C   tau(  46) = (   0.6669171   2.0239714   2.3854075  )
        47           C   tau(  47) = (   0.8334847   1.7353460   2.3856745  )
        48           C   tau(  48) = (   0.8337301   2.1203065   2.3860703  )
        49           C_h tau(  49) = (   0.4817526   0.9548742   3.3884182  )
        50           O   tau(  50) = (   0.3804061   1.0742193   3.3884182  )

     number of k points=     6  gaussian smearing, width (Ry)=  0.1000
                       cart. coord. in units 2pi/alat
        k(    1) = (   0.0000000   0.0000000   0.0000000), wk =   0.2500000
        k(    2) = (   0.0000000  -0.2165064   0.0000000), wk =   0.2500000
        k(    3) = (   0.2500000   0.0000000   0.0000000), wk =   0.5000000
        k(    4) = (   0.2500000  -0.2165064   0.0000000), wk =   0.5000000
        k(    5) = (  -0.5000000   0.0000000   0.0000000), wk =   0.2500000
        k(    6) = (  -0.5000000  -0.2165064   0.0000000), wk =   0.2500000

     Largest allocated arrays     est. size (Mb)     dimensions
     Largest temporary arrays     est. size (Mb)     dimensions

     Initial potential from superposition of free atoms

     starting charge  177.49994, renormalised to  202.00000

     negative rho (up, down):  9.824E-05 0.000E+00
     Starting wfc are  396 randomized atomic wfcs

     Self-consistent Calculation

     iteration #  1     ecut=    80.00 Ry     beta=0.70
     Davidson diagonalization with overlap
     ethr =  1.00E-04,  avg # of iterations =  6.2

     negative rho (up, down):  3.591E-02 0.000E+00

     total energy              =    -597.48659041 Ry
     Harris-Foulkes estimate   =    -600.15494067 Ry
     estimated scf accuracy    <       7.66177456 Ry

[...]

     iteration #  5     ecut=    80.00 Ry     beta=0.70
     Davidson diagonalization with overlap
     c_bands:  2 eigenvalues not converged
     ethr =  1.58E-05,  avg # of iterations =  8.2

[...]

     iteration #  6     ecut=    80.00 Ry     beta=0.70
     Davidson diagonalization with overlap
     c_bands:  2 eigenvalues not converged
     ethr =  5.81E-06,  avg # of iterations = 10.5

[...]

     total energy              =    -598.54069446 Ry
     Harris-Foulkes estimate   =    -598.54069447 Ry
     estimated scf accuracy    <       0.00000001 Ry

     iteration # 16     ecut=    80.00 Ry     beta=0.70
     Davidson diagonalization with overlap
     ethr =  6.98E-12,  avg # of iterations =  3.7

     negative rho (up, down):  2.173E-05 0.000E+00

     End of self-consistent calculation

          k = 0.0000 0.0000 0.0000 (256287 PWs)   bands (ev):

   -30.8148 -23.9109 -23.5399 -23.5392 -22.4363 -22.4359 -21.9527 -21.9511
   -21.5914 -21.5904 -21.5896 -21.5891 -20.6410 -20.6401 -20.5247 -20.5241
   -20.5228 -20.5221 -18.8348 -18.8341 -18.8337 -18.8329 -18.6259 -17.6324
   -16.9531 -16.9528 -16.9521 -16.9511 -16.0765 -16.0753 -16.0748 -16.0743
   -15.1702 -15.0869 -15.0856 -15.0125 -15.0121 -15.0117 -15.0111 -14.9957
   -14.9951 -13.4589 -13.4580 -13.4575 -13.4567 -13.2976 -13.2970 -13.2965
   -13.2958 -12.5877 -12.5858 -12.1537 -12.1520 -11.9856 -11.8213 -11.8212
   -11.5448 -11.5442 -11.0152 -11.0146 -11.0137 -11.0129 -10.8683 -10.8497
   -10.8493 -10.6847 -10.5056 -10.5036 -10.2538 -10.2534 -10.1986 -10.1983
   -10.1978 -10.1971  -9.6926  -9.6911  -9.4942  -9.4940  -9.2920  -9.2914
    -9.2906  -9.2903  -8.8422  -8.8412  -8.2723  -8.2714  -8.1840  -8.1824
    -8.1338  -8.1331  -8.1328  -8.1322  -7.4787  -7.4775  -6.7232  -6.3780
    -6.3779  -6.3772  -6.3764  -4.3559  -4.3545  -4.3533  -4.3528  -3.9353
    -3.9349  -2.6449  -2.4319  -2.4292  -2.4286  -2.4277  -0.6135  -0.6123
    -0.6092  -0.6075  -0.5384  -0.5369  -0.4782   0.0164   0.0338   0.6327
     1.1266

[...]

          k = 0.2500-0.2165 0.0000 (256316 PWs)   bands (ev):

[...]

          k =-0.5000 0.0000 0.0000 (256496 PWs)   bands (ev):

[...]

          k =-0.5000-0.2165 0.0000 (256328 PWs)   bands (ev):

   -30.8148 -23.3308 -23.3290 -23.3183 -23.3170 -22.5889 -22.5885 -22.5883
   -22.5882 -21.1446 -21.1442 -21.1433 -21.1431 -19.5240 -19.5237 -19.5173
   -19.5168 -19.0842 -19.0826 -19.0783 -19.0773 -18.9035 -18.9031 -18.8998
   -18.8989 -17.2082 -17.2076 -17.2041 -17.2034 -16.2442 -16.2433 -16.2411
   -16.2410 -15.4816 -15.4813 -15.4780 -15.4778 -15.1703 -13.4094 -13.4089
   -13.4083 -13.4081 -12.7869 -12.7866 -12.7834 -12.7828 -12.5876 -12.5860
   -12.5585 -12.5581 -12.5520 -12.5516 -11.6886 -11.6883 -11.6877 -11.6874
   -11.2973 -11.2947 -11.2854 -11.2828 -11.1461 -11.1457 -11.1419 -11.1406
   -11.1388 -11.1377 -11.1366 -11.1362 -10.6844 -10.4283 -10.4279 -10.4277
   -10.4276  -9.8193  -9.8185  -9.8170  -9.8168  -9.5173  -9.5158  -9.5090
    -9.5073  -8.7771  -8.7767  -8.7763  -8.7760  -8.5309  -8.5304  -8.5253
    -8.5241  -7.0522  -7.0519  -7.0439  -7.0430  -6.7900  -6.7893  -6.7823
    -6.7812  -6.6865  -6.6841  -6.6769  -6.6753  -3.9353  -3.9322  -2.4903
    -2.4894  -2.4822  -2.4813  -2.2318  -2.2315  -2.2244  -2.2236  -1.7048
    -1.7045  -1.6979  -1.6974   0.2697   0.2928   0.3456   0.3478   0.5844
     0.5851

     the Fermi energy is    -4.7259 ev

!    total energy              =    -598.54069451 Ry
     Harris-Foulkes estimate   =    -598.54069446 Ry
     estimated scf accuracy    <          2.8E-09 Ry

     The total energy is the sum of the following terms:

     one-electron contribution =   -6900.17105241 Ry
     hartree contribution      =    3465.43431724 Ry
     xc contribution           =    -179.41642414 Ry
     ewald contribution        =    3016.07446931 Ry
     Dispersion Correction     =      -0.19143823 Ry
     smearing contrib. (-TS)   =      -0.27056629 Ry

     convergence has been achieved in  16 iterations

     Writing output data file gc.save

     General routines

     Parallel routines

   This run was terminated on:  13:50:55   7Nov2017

   JOB DONE.