     Program PWSCF v.5.4.0 starts on 16Sep2017 at 17:39:14

     Current dimensions of program PWSCF are:
     Max number of different atomic species (ntypx) = 10
     Max number of k-points (npk) =  40000
     Max angular momentum in pseudopotentials (lmaxx) =  3
     WARNING: atomic wfc #  2 for atom type 4 has zero norm
     WARNING: atomic wfc #  4 for atom type 4 has zero norm
     WARNING: atomic wfc #  5 for atom type 4 has zero norm

     Parameters for Dispersion Correction:
       atom      VdW radius       C_6

        Cu         2.952        374.666
        C_h        2.744         60.710
        C          2.744         60.710
        O          2.536         24.284
        H          1.892          4.857

     bravais-lattice index     =            0
     lattice parameter (alat)  =      13.9425  a.u.
     unit-cell volume          =   21209.0878 (a.u.)^3
     number of atoms/cell      =          136
     number of atomic types    =            5
     number of electrons       =      1231.00
     number of Kohn-Sham states=          739
     kinetic-energy cutoff     =      80.0000  Ry
     charge density cutoff     =     320.0000  Ry
     convergence threshold     =      1.0E-08
     mixing beta               =       0.7000
     number of iterations used =            8  local-TF  mixing
     Exchange-correlation      =  SLA  PW   PBE  PBE ( 1  4  3  4 0 0)

     celldm(1)=  13.942539  celldm(2)=   0.000000  celldm(3)=   0.000000
     celldm(4)=   0.000000  celldm(5)=   0.000000  celldm(6)=   0.000000

     crystal axes: (cart. coord. in units of alat)
               a(1) = (   1.000000   0.000000   0.000000 )
               a(2) = (   0.000000   2.309401   0.000000 )
               a(3) = (   0.000000   0.000000   3.388418 )

     reciprocal axes: (cart. coord. in units 2 pi/alat)
               b(1) = (  1.000000  0.000000  0.000000 )
               b(2) = (  0.000000  0.433013  0.000000 )
               b(3) = (  0.000000  0.000000  0.295123 )

     PseudoPot. # 1 for Cu read from file:
     /home/549/hxw549/Short/pseudopotentials/Cu.pbe-n-van_ak.UPF
     MD5 check sum: 601f7c30f7467666bec936e0661ce3e1
     Pseudo is Ultrasoft + core correction, Zval = 11.0
     Generated by new atomic code, or converted to UPF format
     Using radial grid of  867 points,  6 beta functions with:
                l(1) =   0
                l(2) =   0
                l(3) =   1
                l(4) =   1
                l(5) =   2
                l(6) =   2
     Q(r) pseudized with  8 coefficients,  rinner =    1.400   1.400   1.400
                                                       1.400   1.400

     PseudoPot. # 2 for C  read from file:
     /home/549/hxw549/Short/pseudopotentials/C.star1s-pbe-mt_gipaw.UPF
     MD5 check sum: ef0cb3dee31bd9e4ba2a832a2c716264
     Pseudo is Norm-conserving, Zval =  5.0
     Generated by new atomic code, or converted to UPF format
     Using radial grid of 1073 points,  1 beta functions with:
                l(1) =   0

     PseudoPot. # 3 for C  read from file:
     /home/549/hxw549/Short/pseudopotentials/C.pbe-mt_gipaw.UPF
     MD5 check sum: 5ac2f21f2c440b14befe521540822c15
     Pseudo is Norm-conserving, Zval =  4.0
     Generated by new atomic code, or converted to UPF format
     Using radial grid of 1073 points,  1 beta functions with:
                l(1) =   0

     PseudoPot. # 4 for O  read from file:
     /home/549/hxw549/Short/pseudopotentials/O.pbe-van_gipaw.UPF
     MD5 check sum: 5ce2a047509d4f331db576c963e74b29
     Pseudo is Ultrasoft, Zval =  6.0
     Generated by new atomic code, or converted to UPF format
     Using radial grid of 1095 points,  4 beta functions with:
                l(1) =   0
                l(2) =   0
                l(3) =   1
                l(4) =   1
     Q(r) pseudized with 0 coefficients

     PseudoPot. # 5 for H  read from file:
     /home/549/hxw549/Short/pseudopotentials/H.pbe-van_ak.UPF
     MD5 check sum: 077eb6d537518a38cb46c6de387227b7
     Pseudo is Ultrasoft, Zval =  1.0
     Generated by new atomic code, or converted to UPF format
     Using radial grid of  615 points,  1 beta functions with:
                l(1) =   0
     Q(r) pseudized with  8 coefficients,  rinner =    0.800

     atomic species   valence    mass     pseudopotential
        Cu            11.00    63.54600     Cu( 1.00)
        C_h            5.00    12.01070     C ( 1.00)
        C              4.00    12.01070     C ( 1.00)
        O              6.00    15.99940     O ( 1.00)
        H              1.00     1.00783     H ( 1.00)

     No symmetry found

   Cartesian axes

     site n.     atom                  positions (alat units)
         1           Cu  tau(   1) = (  -0.0003168  -0.0013982   1.0055199  )
         2           Cu  tau(   2) = (   0.2501453   0.2295555   1.0052839  )
         3           Cu  tau(   3) = (   0.5004149  -0.0014171   1.0055977  )
         4           Cu  tau(   4) = (   0.7498817   0.2306962   1.0053398  )
         5           Cu  tau(   5) = (   0.0003815   0.4622466   1.0056377  )
         6           Cu  tau(   6) = (   0.2498334   0.6945201   1.0064829  )
         7           Cu  tau(   7) = (   0.4995424   0.4625541   1.0057872  )
         8           Cu  tau(   8) = (   0.7499853   0.6939216   1.0062134  )
         9           Cu  tau(   9) = (  -0.0002738   0.9257629   1.0060329  )
        10           Cu  tau(  10) = (   0.2499967   1.1566802   1.0049578  )
        11           Cu  tau(  11) = (   0.5000439   0.9254919   1.0059485  )
        12           Cu  tau(  12) = (   0.7498101   1.1567544   1.0046319  )
        13           Cu  tau(  13) = (  -0.0000014   1.3874667   1.0039594  )
        14           Cu  tau(  14) = (   0.2499532   1.6179332   1.0043783  )
        15           Cu  tau(  15) = (   0.4998922   1.3876732   1.0041395  )
        16           Cu  tau(  16) = (   0.7500516   1.6181131   1.0043239  )
        17           Cu  tau(  17) = (   0.0001895   1.8480219   1.0050140  )
        18           Cu  tau(  18) = (   0.2500817   2.0781217   1.0055047  )
        19           Cu  tau(  19) = (   0.4999029   1.8478872   1.0049984  )
        20           Cu  tau(  20) = (   0.7500367   2.0773181   1.0056590  )
        21           Cu  tau(  21) = (  -0.0000391   0.2295896   1.2529306  )
        22           Cu  tau(  22) = (   0.2500099  -0.0018307   1.2544655  )
        23           Cu  tau(  23) = (   0.4998891   0.2295487   1.2529552  )
        24           Cu  tau(  24) = (   0.7500272  -0.0015922   1.2536173  )
        25           Cu  tau(  25) = (  -0.0002947   0.6942465   1.2540564  )
        26           Cu  tau(  26) = (   0.2498546   0.4614900   1.2533831  )
        27           Cu  tau(  27) = (   0.4996289   0.6943854   1.2545906  )
        28           Cu  tau(  28) = (   0.7497175   0.4616641   1.2536082  )
        29           Cu  tau(  29) = (  -0.0004575   1.1578716   1.2536260  )
        30           Cu  tau(  30) = (   0.2497018   0.9266962   1.2539681  )
        31           Cu  tau(  31) = (   0.4998348   1.1575912   1.2533958  )
        32           Cu  tau(  32) = (   0.7495918   0.9266035   1.2538034  )
        33           Cu  tau(  33) = (  -0.0001437   1.6174892   1.2541758  )
        34           Cu  tau(  34) = (   0.2497105   1.3878688   1.2532695  )
        35           Cu  tau(  35) = (   0.4999548   1.6178461   1.2543303  )
        36           Cu  tau(  36) = (   0.7498162   1.3878286   1.2532209  )
        37           Cu  tau(  37) = (   0.0000992   2.0770263   1.2550949  )
        38           Cu  tau(  38) = (   0.2499971   1.8472971   1.2549015  )
        39           Cu  tau(  39) = (   0.4999955   2.0768965   1.2550121  )
        40           Cu  tau(  40) = (   0.7500286   1.8469493   1.2555419  )
        41           Cu  tau(  41) = (   0.0003807  -0.0018379   1.5037317  )
        42           Cu  tau(  42) = (   0.2499033   0.2287619   1.5028275  )
        43           Cu  tau(  43) = (   0.4995050  -0.0017969   1.5037526  )
        44           Cu  tau(  44) = (   0.7495528   0.2280993   1.5025861  )
        45           Cu  tau(  45) = (  -0.0007269   0.4604871   1.5010983  )
        46           Cu  tau(  46) = (   0.2496424   0.6943777   1.5006954  )
        47           Cu  tau(  47) = (   0.4996426   0.4596935   1.5017767  )
        48           Cu  tau(  48) = (   0.7489551   0.6953350   1.5012739  )
        49           Cu  tau(  49) = (  -0.0007777   0.9278281   1.5026550  )
        50           Cu  tau(  50) = (   0.2493812   1.1590973   1.5039380  )
        51           Cu  tau(  51) = (   0.4993419   0.9288320   1.5040008  )
        52           Cu  tau(  52) = (   0.7491263   1.1585494   1.5041918  )
        53           Cu  tau(  53) = (  -0.0006873   1.3877971   1.5052286  )
        54           Cu  tau(  54) = (   0.2498729   1.6164005   1.5051035  )
        55           Cu  tau(  55) = (   0.4993404   1.3874153   1.5043473  )
        56           Cu  tau(  56) = (   0.7495971   1.6158624   1.5059274  )
        57           Cu  tau(  57) = (   0.0000240   1.8463852   1.5064084  )
        58           Cu  tau(  58) = (   0.2502207   2.0761930   1.5065031  )
        59           Cu  tau(  59) = (   0.4998710   1.8469524   1.5073555  )
        60           Cu  tau(  60) = (   0.7498534   2.0779661   1.5049795  )
[...]
       112           C   tau( 112) = (   0.8347338   0.3815168   2.3816070  )
       113           C   tau( 113) = (   0.0017265   0.6722275   2.3919043  )
       114           C   tau( 114) = (   0.0024259   0.8662903   2.3843894  )
       115           C   tau( 115) = (   0.1678011   0.5749250   2.3884409  )
       116           C   tau( 116) = (   0.1689914   0.9635859   2.3749056  )
       117           C   tau( 117) = (   0.3342975   0.6720677   2.3853037  )
       118           C   tau( 118) = (   0.3346264   0.8658441   2.3811710  )
       119           C   tau( 119) = (   0.5011189   0.5750288   2.3822774  )
       120           C   tau( 120) = (   0.5017281   0.9619794   2.3756113  )
       121           C   tau( 121) = (   0.6681747   0.6719062   2.3869661  )
       122           C   tau( 122) = (   0.6686882   0.8656432   2.3844571  )
       123           C   tau( 123) = (   0.8349790   0.5753321   2.3890977  )
       124           C   tau( 124) = (   0.8354827   0.9623328   2.3784302  )
       125           C   tau( 125) = (   0.0022904   1.2519625   2.3456355  )
       126           C   tau( 126) = (   0.1683857   1.1577655   2.3483254  )
       127           C_h tau( 127) = (   0.3375546   1.2520521   2.3220187  )
       128           C   tau( 128) = (   0.5036080   1.1548913   2.3552935  )
       129           C   tau( 129) = (   0.6689464   1.2489971   2.3477794  )
       130           C   tau( 130) = (   0.8361965   1.1567815   2.3603742  )
       131           H   tau( 131) = (   0.1673743  -0.1511437   2.3532277  )
       132           H   tau( 132) = (   0.5006682  -0.1506622   2.3426758  )
       133           H   tau( 133) = (   0.8341419  -0.1511292   2.3526473  )
       134           H   tau( 134) = (   0.0028953   1.4001816   2.3460099  )
       135           O   tau( 135) = (   0.3461521   1.4224244   2.2656911  )
       136           H   tau( 136) = (   0.6669454   1.3965938   2.3410095  )

     number of k points=     6  gaussian smearing, width (Ry)=  0.1000
                       cart. coord. in units 2pi/alat
        k(    1) = (   0.0000000   0.0000000   0.0000000), wk =   0.2500000
        k(    2) = (   0.0000000  -0.2165064   0.0000000), wk =   0.2500000
        k(    3) = (   0.2500000   0.0000000   0.0000000), wk =   0.5000000
        k(    4) = (   0.2500000  -0.2165064   0.0000000), wk =   0.5000000
        k(    5) = (  -0.5000000   0.0000000   0.0000000), wk =   0.2500000
        k(    6) = (  -0.5000000  -0.2165064   0.0000000), wk =   0.2500000

     Largest allocated arrays     est. size (Mb)     dimensions
     Largest temporary arrays     est. size (Mb)     dimensions

     Initial potential from superposition of free atoms
     Check: negative starting charge=   -0.002168

     starting charge 1214.81749, renormalised to 1231.00000

     negative rho (up, down):  2.197E-03 0.000E+00
     Starting wfc are 1149 randomized atomic wfcs

     Self-consistent Calculation

     iteration #  1     ecut=    80.00 Ry     beta=0.70
     Davidson diagonalization with overlap
     c_bands:  1 eigenvalues not converged
     c_bands:  1 eigenvalues not converged
     ethr =  1.00E-04,  avg # of iterations = 20.0

     negative rho (up, down):  2.781E+01 0.000E+00

     total energy              =   -8418.32334807 Ry
     Harris-Foulkes estimate   =  -14945.02533275 Ry
     estimated scf accuracy    <  143682.93942030 Ry

[...]

     iteration #  3     ecut=    80.00 Ry     beta=0.70
     Davidson diagonalization with overlap
     ethr =  1.00E-02,  avg # of iterations =  4.5

[...]

     iteration # 34     ecut=    80.00 Ry     beta=0.70
     Davidson diagonalization with overlap
     c_bands:  1 eigenvalues not converged
     ethr =  4.51E-09,  avg # of iterations = 10.8

[...]

     total energy              =  -12539.20510071 Ry
     Harris-Foulkes estimate   =  -12539.20510073 Ry
     estimated scf accuracy    <       0.00000001 Ry

     iteration # 41     ecut=    80.00 Ry     beta=0.70
     Davidson diagonalization with overlap
     ethr =  1.00E-12,  avg # of iterations =  2.0

     negative rho (up, down):  2.425E-03 0.000E+00

     End of self-consistent calculation

          k = 0.0000 0.0000 0.0000 (256287 PWs)   bands (ev):

   -20.2222 -16.7540 -16.2024 -15.2761 -14.8439 -14.8244 -14.3505 -14.3179
   -13.9860 -13.4697 -13.4226 -12.5223 -12.2599 -12.2402 -10.8582 -10.8523
    -9.8111  -9.6276  -9.5680  -9.1181  -8.9024  -8.2913  -8.0356  -7.9306
    -7.7546  -7.4823  -7.0625  -6.9407  -6.6304  -6.4207  -6.3729  -6.0996
    -6.0788  -5.9753  -5.8409  -5.8197  -5.7397  -5.4437  -5.3429  -5.1342
    -4.9749  -4.7712  -4.7569  -4.5916  -4.5745  -4.3032  -4.2550  -4.0090
    -4.0017  -3.9866  -3.8625  -3.7248  -3.6709  -3.6562  -3.6201  -3.6129
    -3.6085  -3.6044  -3.6002  -3.5692  -3.5272  -3.3936  -3.3701  -3.3033
    -3.2531  -3.2175  -3.1613  -3.1396  -3.1291  -2.9593  -2.9379  -2.9330
    -2.8987  -2.8021  -2.7973  -2.7920  -2.7568  -2.7546  -2.7526  -2.7502
    -2.7453  -2.6921  -2.6285  -2.6275  -2.6170  -2.6151  -2.5606  -2.4995
    -2.4909  -2.4485  -2.3806  -2.3665  -2.3482  -2.3423  -2.3319  -2.3175
    -2.2831  -2.2777  -2.2580  -2.2562  -2.2411  -2.2223  -2.2128  -2.1801
    -2.1732  -2.1690  -2.1557  -2.1417  -2.1348  -2.1209  -2.1159  -2.1002
    -2.0780  -2.0521  -2.0472  -2.0185  -1.9932  -1.9861  -1.9566  -1.9355
    -1.9049  -1.8836  -1.8747  -1.8623  -1.8528  -1.8383  -1.8168  -1.8151
    -1.7977  -1.7910  -1.7829  -1.7709  -1.7660  -1.7050  -1.6708  -1.6618
    -1.6563  -1.6480  -1.6394  -1.6378  -1.6348  -1.6324  -1.6314  -1.6293
    -1.6201  -1.6112  -1.6091  -1.6058  -1.5981  -1.5894  -1.5650  -1.5543
    -1.5442  -1.5415  -1.5363  -1.5257  -1.5236  -1.5201  -1.4778  -1.4718
    -1.4660  -1.4657  -1.4635  -1.4607  -1.4591  -1.4542  -1.4526  -1.4508
    -1.4497  -1.4484  -1.4453  -1.4428  -1.4422  -1.4352  -1.4283  -1.3849
    -1.3578  -1.2995  -1.2932  -1.2903  -1.2880  -1.2869  -1.2724  -1.2477
    -1.2460  -1.2338  -1.2259  -1.2217  -1.2106  -1.2099  -1.2043  -1.1970
    -1.1834  -1.1715  -1.1681  -1.1651  -1.1623  -1.1616  -1.1593  -1.1533
    -1.1473  -1.1013  -1.0945  -1.0548  -1.0468  -1.0446  -1.0396  -1.0374
    -1.0359  -1.0311  -1.0281  -1.0180  -1.0135  -1.0100  -1.0087  -1.0079
    -1.0067  -1.0034  -1.0000  -0.9907  -0.9901  -0.9889  -0.9850  -0.9698
    -0.9571  -0.9518  -0.9467  -0.9181  -0.9141  -0.8983  -0.8968  -0.8947
    -0.8778  -0.8759  -0.8724  -0.8668  -0.8657  -0.8607  -0.8557  -0.8506
    -0.8473  -0.8435  -0.8343  -0.8309  -0.8283  -0.8276  -0.8251  -0.8207
    -0.8186  -0.8177  -0.8149  -0.8043  -0.8019  -0.7971  -0.7932  -0.7888
    -0.7841  -0.7579  -0.7496  -0.7335  -0.7280  -0.7260  -0.7233  -0.6994
    -0.6922  -0.6888  -0.6809  -0.6769  -0.6731  -0.6676  -0.6672  -0.6641
    -0.6569  -0.6507  -0.6391  -0.6242  -0.6230  -0.6191  -0.6165  -0.6109
    -0.5952  -0.5913  -0.5846  -0.5799  -0.5783  -0.5737  -0.5670  -0.5637
    -0.5601  -0.5585  -0.5570  -0.5569  -0.5468  -0.5453  -0.5449  -0.5415
    -0.5327  -0.5241  -0.5176  -0.5104  -0.5056  -0.4944  -0.4742  -0.4702
    -0.4470  -0.4415  -0.4348  -0.4174  -0.4122  -0.3976  -0.3807  -0.3776
    -0.3739  -0.3700  -0.3605  -0.3518  -0.3495  -0.3453  -0.3404  -0.3365
    -0.3324  -0.3233  -0.3180  -0.3146  -0.2883  -0.2734  -0.2688  -0.2659
    -0.2640  -0.2576  -0.2539  -0.2484  -0.2396  -0.2340  -0.2271  -0.2199
    -0.2124  -0.2042  -0.1882  -0.1802  -0.1748  -0.1736  -0.1680  -0.1616
    -0.1515  -0.1353  -0.1318  -0.1232  -0.1204  -0.1190  -0.1094  -0.1034
    -0.0993  -0.0985  -0.0930  -0.0902  -0.0799  -0.0792  -0.0760  -0.0755
    -0.0688  -0.0658  -0.0624  -0.0619  -0.0571  -0.0531  -0.0511  -0.0462
    -0.0393  -0.0383  -0.0223  -0.0080  -0.0067  -0.0037  -0.0012   0.0044
     0.0120   0.0242   0.0274   0.0348   0.0374   0.0433   0.0445   0.0469
     0.0497   0.0555   0.0622   0.0670   0.0699   0.0727   0.0784   0.0787
     0.0813   0.0830   0.0886   0.0954   0.1028   0.1160   0.1178   0.1214
     0.1232   0.1275   0.1313   0.1404   0.1412   0.1416   0.1447   0.1508
     0.1534   0.1544   0.1619   0.1918   0.1985   0.2005   0.2028   0.2052
     0.2094   0.2155   0.2234   0.2300   0.2423   0.2494   0.2564   0.2585
     0.2678   0.2690   0.2784   0.2826   0.2854   0.2884   0.2930   0.2941
     0.3038   0.3086   0.3149   0.3192   0.3235   0.3236   0.3308   0.3364
     0.3454   0.3464   0.3541   0.3680   0.3705   0.3753   0.3789   0.3805
     0.3869   0.3913   0.3956   0.3997   0.4019   0.4047   0.4092   0.4127
     0.4137   0.4198   0.4212   0.4238   0.4282   0.4350   0.4380   0.4430
     0.4476   0.4543   0.4639   0.4651   0.4737   0.4747   0.4829   0.4900
     0.4938   0.4972   0.4994   0.5022   0.5063   0.5088   0.5111   0.5147
[...]
     3.2077   3.2413   3.2580   3.2670   3.2866   3.3233   3.3381   3.3720
     3.3845   3.3986   3.4089   3.4158   3.4699   3.5066   3.5741   3.6299
     3.6467   3.7135   3.7996   3.9277   4.1553   4.2990   4.3495   4.5102
     4.6985   4.7014   4.8416   5.0556   5.0914   5.1220   5.2385   5.2797
     5.3354   5.3505   5.5843   5.6715   5.7199   5.7340   5.8220   5.8580
     5.8831   5.9008   5.9431   6.0884   6.0977   6.1366   6.1485   6.1821
     6.3015   6.3058   6.4200   6.4670   6.5017   6.5367   6.5761   6.7393
     6.7730   6.8886   6.9493   7.0067   7.0683   7.1066   7.1269   7.1639
     7.1951   7.2125   7.4432   7.4891   7.5027   7.5649   7.6193   7.6287
     7.7266   7.7374   7.7490   7.7968   7.8191   7.8258   7.8589   7.9362
     7.9679   7.9840   8.0457   8.0864   8.1261   8.1629   8.2035   8.2259
     8.2420   8.2670   8.2847   8.2916   8.3265   8.3704   8.3931   8.4382
     8.4755   8.5351   8.5878   8.6182   8.6835   8.7252   8.7654   8.8064
     8.9535   8.9883   9.1216   9.1691   9.1984   9.2235   9.2702   9.3345
     9.3801   9.4255   9.4408

[...]

          k = 0.2500-0.2165 0.0000 (256316 PWs)   bands (ev):

[...]

          k =-0.5000 0.0000 0.0000 (256496 PWs)   bands (ev):

[...]

          k =-0.5000-0.2165 0.0000 (256328 PWs)   bands (ev):

   -20.2210 -16.3018 -16.2438 -15.7695 -15.6952 -14.8511 -14.7727 -13.6005
   -13.5345 -12.6102 -12.4819 -12.1767 -12.1411 -12.0634 -11.9753 -11.2954
   -10.8680 -10.0773  -9.8072  -9.4653  -9.4136  -8.7755  -8.5920  -7.7111
    -7.6325  -6.6012  -6.2313  -5.8779  -5.8515  -5.7947  -5.7929  -5.7704
    -5.7598  -5.7465  -5.5464  -5.4572  -5.3649  -5.2390  -4.9635  -4.9208
    -4.8820  -4.8563  -4.8165  -4.7938  -4.7906  -4.7576  -4.7411  -4.6129
    -4.5291  -4.4614  -4.3918  -4.3677  -4.2149  -4.1378  -4.0371  -3.9820
    -3.9609  -3.8931  -3.8158  -3.7816  -3.7358  -3.5782  -3.3355  -3.2726
    -3.2172  -3.1839  -3.1790  -3.1720  -3.1645  -3.1537  -3.1200  -3.1025
    -3.0234  -2.8707  -2.8229  -2.7638  -2.6898  -2.6782  -2.6741  -2.6443
    -2.6276  -2.6036  -2.5566  -2.4886  -2.4178  -2.4074  -2.4018  -2.3928
    -2.3188  -2.2379  -2.1973  -2.1890  -2.1845  -2.1573  -2.1024  -2.0996
    -2.0972  -2.0955  -2.0859  -2.0633  -2.0532  -2.0460  -2.0430  -2.0360
    -2.0351  -2.0156  -2.0021  -1.9987  -1.9937  -1.9870  -1.9853  -1.9785
    -1.9742  -1.9687  -1.9643  -1.9626  -1.9592  -1.9585  -1.9174  -1.9152
    -1.9106  -1.9079  -1.8681  -1.8453  -1.8396  -1.8373  -1.8304  -1.8102
    -1.7993  -1.7962  -1.7955  -1.7922  -1.7821  -1.7728  -1.7600  -1.7479
    -1.7336  -1.7305  -1.7286  -1.7242  -1.7239  -1.7203  -1.7180  -1.7149
    -1.7099  -1.7024  -1.6889  -1.6736  -1.6680  -1.6568  -1.6533  -1.6521
    -1.6507  -1.6461  -1.6447  -1.6420  -1.6390  -1.6357  -1.6292  -1.6256
    -1.5951  -1.5114  -1.4983  -1.4892  -1.4789  -1.4605  -1.4581  -1.4564
    -1.4560  -1.4408  -1.3898  -1.3848  -1.3841  -1.3799  -1.3743  -1.3709
    -1.3670  -1.3656  -1.3622  -1.3610  -1.3388  -1.3233  -1.3101  -1.3058
    -1.3016  -1.3005  -1.2975  -1.2920  -1.2867  -1.2803  -1.2764  -1.2672
    -1.2542  -1.2507  -1.2110  -1.2010  -1.1860  -1.1829  -1.1641  -1.1513
    -1.1425  -1.1190  -1.1145  -1.1033  -1.1020  -1.1005  -1.0632  -1.0602
    -1.0551  -1.0513  -1.0430  -1.0413  -1.0338  -1.0265  -1.0239  -1.0085
    -1.0037  -1.0026  -0.9990  -0.9982  -0.9948  -0.9902  -0.9573  -0.9449
    -0.9335  -0.9003  -0.8913  -0.8886  -0.8750  -0.8731  -0.8670  -0.8621
    -0.8603  -0.8587  -0.8555  -0.8495  -0.8475  -0.8445  -0.7986  -0.7785
    -0.7729  -0.7686  -0.7658  -0.7636  -0.7635  -0.7607  -0.7571  -0.7544
    -0.7520  -0.7493  -0.7244  -0.7230  -0.7207  -0.7197  -0.7178  -0.7116
    -0.7084  -0.7061  -0.7027  -0.7023  -0.6978  -0.6958  -0.6769  -0.6484
    -0.6413  -0.6367  -0.6292  -0.6224  -0.6202  -0.6152  -0.6058  -0.5900
    -0.5771  -0.5653  -0.5620  -0.5512  -0.5453  -0.5368  -0.5315  -0.5305
    -0.5288  -0.5271  -0.5253  -0.5206  -0.5172  -0.5155  -0.5137  -0.5107
    -0.5101  -0.5063  -0.5048  -0.5027  -0.5008  -0.4991  -0.4973  -0.4963
    -0.4927  -0.4864  -0.4844  -0.4819  -0.4750  -0.4614  -0.4606  -0.4591
    -0.4581  -0.4528  -0.4466  -0.4436  -0.4361  -0.4307  -0.4145  -0.3992
    -0.3982  -0.3968  -0.3899  -0.3766  -0.3728  -0.3642  -0.3613  -0.3554
    -0.3457  -0.2980  -0.2939  -0.2901  -0.2862  -0.2829  -0.2791  -0.2714
    -0.2659  -0.2629  -0.2572  -0.2528  -0.2503  -0.2488  -0.2447  -0.2434
    -0.2412  -0.2372  -0.2308  -0.2278  -0.2244  -0.2228  -0.2198  -0.2097
    -0.2053  -0.1844  -0.1800  -0.1622  -0.1582  -0.1551  -0.1517  -0.1437
    -0.1431  -0.1393  -0.1381  -0.1373  -0.1302  -0.1209  -0.1136  -0.1089
    -0.1083  -0.1053  -0.1004  -0.0981  -0.0925  -0.0823  -0.0748  -0.0698
    -0.0644  -0.0611  -0.0576  -0.0533  -0.0525  -0.0463  -0.0445  -0.0425
    -0.0401  -0.0389  -0.0339  -0.0295  -0.0286  -0.0257  -0.0217  -0.0171
    -0.0100  -0.0031  -0.0026   0.0039   0.0100   0.0269   0.0337   0.0383
     0.0518   0.0563   0.0614   0.0654   0.0681   0.0754   0.0792   0.0798
     0.0846   0.0886   0.0917   0.0995   0.1035   0.1141   0.1151   0.1169
     0.1192   0.1214   0.1227   0.1270   0.1306   0.1471   0.1663   0.1718
     0.1735   0.1837   0.1924   0.1963   0.2011   0.2045   0.2065   0.2102
     0.2320   0.2354   0.2366   0.2433   0.2473   0.2647   0.2670   0.2688
     0.2742   0.3127   0.3146   0.3167   0.3188   0.3379   0.3400   0.3456
     0.3483   0.3540   0.3698   0.3707   0.3804   0.3855   0.3898   0.3991
     0.4006   0.4068   0.4130   0.4174   0.4207   0.4260   0.4284   0.4313
     0.4342   0.4346   0.4353   0.4370   0.4382   0.4401   0.4430   0.4447
     0.4486   0.4521   0.4559   0.4593   0.4672   0.4708   0.4733   0.4774
     0.4840   0.4900   0.4924   0.4945   0.4985   0.5003   0.5034   0.5069
[...]
     3.3244   3.3282   3.3320   3.5700   3.6122   3.6204   3.6273   3.6362
     3.6998   3.7977   3.8388   3.9076   3.9249   3.9320   4.0032   4.0111
     4.0580   4.0819   4.1317   4.2479   4.3259   4.3442   4.4449   4.5271
     4.5451   4.5611   4.5853   4.6108   4.6331   4.6474   4.6857   4.7290
     4.7634   4.8077   4.8792   4.9695   5.0000   5.1163   5.1236   5.1315
     5.1413   5.2896   5.3714   5.4067   5.5172   5.8144   5.9884   6.1479
     6.2195   6.2328   6.2420   6.4281   6.4439   6.4950   6.5195   6.5448
     6.5497   6.5629   6.6152   6.6312   6.6805   6.7405   6.7584   6.7672
     6.7708   6.7781   6.8109   6.9789   7.0235   7.0615   7.1879   7.3253
     7.3725   7.4426   7.5017   7.5631   7.5993   7.6330   7.6418   7.6596
     7.7548   7.8989   7.9308   8.1045   8.2168   8.2349   8.2588   8.2677
     8.2851   8.2947   8.3110   8.3220   8.3480   8.3608   8.3669   8.3875
     8.4359   8.5249   8.5590   8.5792   8.5794   8.6123   8.6203   8.6725
     8.7648   8.7788   8.8350   8.8773   8.9160   8.9545   9.0290   9.0664
     9.1386   9.2972   9.3355

     the Fermi energy is     2.7116 ev

!    total energy              =  -12539.20510070 Ry
     Harris-Foulkes estimate   =  -12539.20510072 Ry
     estimated scf accuracy    <          4.4E-09 Ry

     The total energy is the sum of the following terms:

     one-electron contribution = -110674.08079460 Ry
     hartree contribution      =   56650.96807316 Ry
     xc contribution           =   -4394.60835881 Ry
     ewald contribution        =   45884.60405580 Ry
     Dispersion Correction     =      -2.79880078 Ry
     smearing contrib. (-TS)   =      -3.28927546 Ry

     convergence has been achieved in  41 iterations

     Writing output data file gc.save

     General routines

     Parallel routines

   This run was terminated on:  23:45:45  16Sep2017

   JOB DONE.