     Program PWSCF v.5.4.0 starts on 14Mar2017 at 21:33:50

     Current dimensions of program PWSCF are:
     Max number of different atomic species (ntypx) = 10
     Max number of k-points (npk) =  40000
     Max angular momentum in pseudopotentials (lmaxx) =  3

     Parameters for Dispersion Correction:
       atom      VdW radius       C_6

        Cu         2.952        374.666
        C_h        2.744         60.710
        C          2.744         60.710

     bravais-lattice index     =            0
     lattice parameter (alat)  =      13.9425  a.u.
     unit-cell volume          =   21209.0878 (a.u.)^3
     number of atoms/cell      =          148
     number of atomic types    =            3
     number of electrons       =      1292.00
     number of Kohn-Sham states=          775
     kinetic-energy cutoff     =      80.0000  Ry
     charge density cutoff     =     320.0000  Ry
     convergence threshold     =      1.0E-08
     mixing beta               =       0.7000
     number of iterations used =            8  local-TF  mixing
     Exchange-correlation      =  SLA  PW   PBX  PBC ( 1  4  3  4 0 0)

     celldm(1)=  13.942539  celldm(2)=   0.000000  celldm(3)=   0.000000
     celldm(4)=   0.000000  celldm(5)=   0.000000  celldm(6)=   0.000000

     crystal axes: (cart. coord. in units of alat)
               a(1) = (   1.000000   0.000000   0.000000 )
               a(2) = (   0.000000   2.309401   0.000000 )
               a(3) = (   0.000000   0.000000   3.388418 )

     reciprocal axes: (cart. coord. in units 2 pi/alat)
               b(1) = (  1.000000  0.000000  0.000000 )
               b(2) = (  0.000000  0.433013  0.000000 )
               b(3) = (  0.000000  0.000000  0.295123 )

     PseudoPot. # 1 for Cu read from file:
     /home/549/hxw549/Short/pseudopotentials/Cu.pbe-n-van_ak.UPF
     MD5 check sum: 601f7c30f7467666bec936e0661ce3e1
     Pseudo is Ultrasoft + core correction, Zval = 11.0
     Generated by new atomic code, or converted to UPF format
     Using radial grid of  867 points,  6 beta functions with:
                l(1) =   0
                l(2) =   0
                l(3) =   1
                l(4) =   1
                l(5) =   2
                l(6) =   2
     Q(r) pseudized with  8 coefficients,  rinner =    1.400   1.400   1.400
                                                       1.400   1.400

     PseudoPot. # 2 for C  read from file:
     /home/549/hxw549/Short/pseudopotentials/C.star1s-pbe-mt_gipaw.UPF
     MD5 check sum: ef0cb3dee31bd9e4ba2a832a2c716264
     Pseudo is Norm-conserving, Zval =  5.0
     Generated by new atomic code, or converted to UPF format
     Using radial grid of 1073 points,  1 beta functions with:
                l(1) =   0

     PseudoPot. # 3 for C  read from file:
     /home/549/hxw549/Short/pseudopotentials/C.pbe-mt_gipaw.UPF
     MD5 check sum: 5ac2f21f2c440b14befe521540822c15
     Pseudo is Norm-conserving, Zval =  4.0
     Generated by new atomic code, or converted to UPF format
     Using radial grid of 1073 points,  1 beta functions with:
                l(1) =   0

     atomic species   valence    mass     pseudopotential
        Cu            11.00    63.54600     Cu( 1.00)
        C_h            5.00    12.01070     C ( 1.00)
        C              4.00    12.01070     C ( 1.00)

      2 Sym. Ops. (no inversion) found

   Cartesian axes

     site n.     atom                  positions (alat units)
         1           Cu  tau(   1) = (   0.0000000   0.0000567   0.9971194  )
         2           Cu  tau(   2) = (   0.2499927   0.2309760   0.9972946  )
         3           Cu  tau(   3) = (   0.5000000   0.0000313   0.9971490  )
         4           Cu  tau(   4) = (   0.7500073   0.2309760   0.9972946  )
         5           Cu  tau(   5) = (   0.0000000   0.4618437   0.9973425  )
         6           Cu  tau(   6) = (   0.2499840   0.6927701   0.9971914  )
         7           Cu  tau(   7) = (   0.5000000   0.4618722   0.9973119  )
         8           Cu  tau(   8) = (   0.7500160   0.6927701   0.9971914  )
         9           Cu  tau(   9) = (   0.0000000   0.9237521   0.9970621  )
        10           Cu  tau(  10) = (   0.2500157   1.1547420   0.9971373  )
        11           Cu  tau(  11) = (   0.5000000   0.9237453   0.9970727  )
        12           Cu  tau(  12) = (   0.7499843   1.1547420   0.9971373  )
        13           Cu  tau(  13) = (   0.0000000   1.3856555   0.9972830  )
        14           Cu  tau(  14) = (   0.2500029   1.6165618   0.9973242  )
        15           Cu  tau(  15) = (   0.5000000   1.3857014   0.9973005  )
        16           Cu  tau(  16) = (   0.7499971   1.6165618   0.9973242  )
        17           Cu  tau(  17) = (   0.0000000   1.8474941   0.9971969  )
        18           Cu  tau(  18) = (   0.2500043   2.0784518   0.9970745  )
        19           Cu  tau(  19) = (   0.5000000   1.8474499   0.9971773  )
        20           Cu  tau(  20) = (   0.7499957   2.0784518   0.9970745  )
        21           Cu  tau(  21) = (   0.0000000   0.2308065   1.2457643  )
        22           Cu  tau(  22) = (   0.2499892  -0.0001010   1.2455764  )
        23           Cu  tau(  23) = (   0.5000000   0.2308938   1.2456746  )
        24           Cu  tau(  24) = (   0.7500108  -0.0001010   1.2455764  )
        25           Cu  tau(  25) = (   0.0000000   0.6929786   1.2456406  )
        26           Cu  tau(  26) = (   0.2499874   0.4619293   1.2457459  )
        27           Cu  tau(  27) = (   0.5000000   0.6929012   1.2456074  )
        28           Cu  tau(  28) = (   0.7500126   0.4619293   1.2457459  )
        29           Cu  tau(  29) = (   0.0000000   1.1546142   1.2455676  )
        30           Cu  tau(  30) = (   0.2499981   0.9237849   1.2455149  )
        31           Cu  tau(  31) = (   0.5000000   1.1545763   1.2455800  )
        32           Cu  tau(  32) = (   0.7500019   0.9237849   1.2455149  )
        33           Cu  tau(  33) = (   0.0000000   1.6166029   1.2456910  )
        34           Cu  tau(  34) = (   0.2500161   1.3855492   1.2457134  )
        35           Cu  tau(  35) = (   0.5000000   1.6166555   1.2458019  )
        36           Cu  tau(  36) = (   0.7499839   1.3855492   1.2457134  )
        37           Cu  tau(  37) = (   0.0000000   2.0784993   1.2455162  )
        38           Cu  tau(  38) = (   0.2500161   1.8476387   1.2456210  )
        39           Cu  tau(  39) = (   0.5000000   2.0784755   1.2455152  )
        40           Cu  tau(  40) = (   0.7499839   1.8476387   1.2456210  )
        41           Cu  tau(  41) = (   0.0000000  -0.0003182   1.4954305  )
        42           Cu  tau(  42) = (   0.2500224   0.2307186   1.4951678  )
        43           Cu  tau(  43) = (   0.5000000  -0.0002059   1.4952775  )
        44           Cu  tau(  44) = (   0.7499776   0.2307186   1.4951678  )
        45           Cu  tau(  45) = (   0.0000000   0.4620254   1.4950571  )
        46           Cu  tau(  46) = (   0.2500339   0.6931225   1.4952807  )
        47           Cu  tau(  47) = (   0.5000000   0.4619896   1.4952144  )
        48           Cu  tau(  48) = (   0.7499661   0.6931225   1.4952807  )
        49           Cu  tau(  49) = (   0.0000000   0.9238798   1.4954544  )
        50           Cu  tau(  50) = (   0.2499708   1.1544329   1.4953374  )
        51           Cu  tau(  51) = (   0.5000000   0.9237633   1.4954072  )
        52           Cu  tau(  52) = (   0.7500292   1.1544329   1.4953374  )
        53           Cu  tau(  53) = (   0.0000000   1.3854453   1.4952066  )
        54           Cu  tau(  54) = (   0.2499861   1.6167017   1.4951298  )
        55           Cu  tau(  55) = (   0.5000000   1.3853760   1.4951346  )
        56           Cu  tau(  56) = (   0.7500139   1.6167017   1.4951298  )
        57           Cu  tau(  57) = (   0.0000000   1.8477718   1.4952308  )
        58           Cu  tau(  58) = (   0.2499930   2.0785254   1.4954090  )
        59           Cu  tau(  59) = (   0.5000000   1.8478762   1.4953503  )
        60           Cu  tau(  60) = (   0.7500070   2.0785254   1.4954090  )
[...]
       105           C   tau( 105) = (   0.3331238   0.0962174   2.4029577  )
       106           C   tau( 106) = (   0.3331280   0.2886629   2.4195610  )
       107           C   tau( 107) = (   0.5000000  -0.0000818   2.3845519  )
       108           C   tau( 108) = (   0.5000000   0.3849277   2.4135838  )
       109           C   tau( 109) = (   0.6668762   0.0962174   2.4029577  )
       110           C   tau( 110) = (   0.6668720   0.2886629   2.4195610  )
       111           C   tau( 111) = (   0.8333677   0.0000435   2.3878454  )
       112           C   tau( 112) = (   0.8335100   0.3848966   2.4180159  )
       113           C   tau( 113) = (   0.0000000   0.6735163   2.3723129  )
       114           C   tau( 114) = (   0.0000000   0.8659398   2.3532158  )
       115           C   tau( 115) = (   0.1664759   0.5773226   2.3882927  )
       116           C   tau( 116) = (   0.1667428   0.9622141   2.3576749  )
       117           C   tau( 117) = (   0.3332094   0.6735984   2.3688567  )
       118           C   tau( 118) = (   0.3332031   0.8660537   2.3527278  )
       119           C   tau( 119) = (   0.5000000   0.5773685   2.3848365  )
       120           C_h tau( 120) = (   0.5000000   0.9623380   2.3567397  )
       121           C   tau( 121) = (   0.6667906   0.6735984   2.3688567  )
       122           C   tau( 122) = (   0.6667969   0.8660537   2.3527278  )
       123           C   tau( 123) = (   0.8335241   0.5773226   2.3882927  )
       124           C   tau( 124) = (   0.8332572   0.9622141   2.3576749  )
       125           C   tau( 125) = (   0.0000000   1.2508867   2.4021987  )
       126           C   tau( 126) = (   0.0000000   1.4433300   2.4179752  )
       127           C   tau( 127) = (   0.1667360   1.1546708   2.3859614  )
       128           C   tau( 128) = (   0.1668939   1.5396104   2.4150612  )
       129           C   tau( 129) = (   0.3335095   1.2509657   2.4048417  )
       130           C   tau( 130) = (   0.3334866   1.4433958   2.4225428  )
       131           C   tau( 131) = (   0.5000000   1.1547731   2.3885637  )
       132           C   tau( 132) = (   0.5000000   1.5396099   2.4194932  )
       133           C   tau( 133) = (   0.6664905   1.2509657   2.4048417  )
       134           C   tau( 134) = (   0.6665134   1.4433958   2.4225428  )
       135           C   tau( 135) = (   0.8332640   1.1546708   2.3859614  )
       136           C   tau( 136) = (   0.8331061   1.5396104   2.4150612  )
       137           C   tau( 137) = (   0.0000000   1.8283510   2.3672438  )
       138           C   tau( 138) = (   0.0000000   2.0207949   2.3524568  )
       139           C   tau( 139) = (   0.1668959   1.7320513   2.3858666  )
       140           C   tau( 140) = (   0.1666186   2.1169980   2.3572005  )
       141           C   tau( 141) = (   0.3334155   1.8282368   2.3712828  )
       142           C   tau( 142) = (   0.3334352   2.0206763   2.3530667  )
       143           C   tau( 143) = (   0.5000000   1.7319961   2.3895532  )
       144           C   tau( 144) = (   0.5000000   2.1168754   2.3576749  )
       145           C   tau( 145) = (   0.6665845   1.8282368   2.3712828  )
       146           C   tau( 146) = (   0.6665648   2.0206763   2.3530667  )
       147           C   tau( 147) = (   0.8331041   1.7320513   2.3858666  )
       148           C   tau( 148) = (   0.8333814   2.1169980   2.3572005  )

     number of k points=     6  gaussian smearing, width (Ry)=  0.1000
                       cart. coord. in units 2pi/alat
        k(    1) = (   0.0000000   0.0000000   0.0000000), wk =   0.2500000
        k(    2) = (   0.0000000  -0.2165064   0.0000000), wk =   0.2500000
        k(    3) = (   0.2500000   0.0000000   0.0000000), wk =   0.5000000
        k(    4) = (   0.2500000  -0.2165064   0.0000000), wk =   0.5000000
        k(    5) = (  -0.5000000   0.0000000   0.0000000), wk =   0.2500000
        k(    6) = (  -0.5000000  -0.2165064   0.0000000), wk =   0.2500000

     Largest allocated arrays     est. size (Mb)     dimensions
     Largest temporary arrays     est. size (Mb)     dimensions

     Initial potential from superposition of free atoms
     Check: negative starting charge=   -0.001833

     starting charge 1266.81751, renormalised to 1292.00000

     negative rho (up, down):  1.870E-03 0.000E+00
     Starting wfc are 1284 randomized atomic wfcs

     Self-consistent Calculation

     iteration #  1     ecut=    80.00 Ry     beta=0.70
     Davidson diagonalization with overlap
     c_bands:  1 eigenvalues not converged
     ethr =  1.00E-04,  avg # of iterations = 35.7

     negative rho (up, down):  2.678E+01 0.000E+00

     total energy              =   -9553.68200178 Ry
     Harris-Foulkes estimate   =  -17293.46689162 Ry
     estimated scf accuracy    <  179074.82571541 Ry

     iteration #  2     ecut=    80.00 Ry     beta=0.70
     Davidson diagonalization with overlap
     ethr =  1.00E-02,  avg # of iterations = 12.2

[...]

     iteration # 42     ecut=    80.00 Ry     beta=0.70
     Davidson diagonalization with overlap
     c_bands:  1 eigenvalues not converged
     ethr =  9.84E-10,  avg # of iterations =  6.8

[...]

     total energy              =  -12707.07753962 Ry
     Harris-Foulkes estimate   =  -12707.07753957 Ry
     estimated scf accuracy    <       0.00000003 Ry

     iteration # 48     ecut=    80.00 Ry     beta=0.70
     Davidson diagonalization with overlap
     ethr =  2.54E-12,  avg # of iterations =  3.2

     negative rho (up, down):  2.105E-03 0.000E+00

     End of self-consistent calculation

          k = 0.0000 0.0000 0.0000 (256287 PWs)   bands (ev):

   -17.2532 -16.1983 -15.9825 -15.3859 -14.9859 -14.7502 -14.6498 -14.2194
   -14.1825 -14.0321 -14.0127 -13.4319 -13.2626 -13.1396 -13.1025 -13.0096
   -12.9888 -11.6496 -11.4837 -11.4608 -11.3448 -11.2413 -10.2692  -9.7588
    -9.7503  -9.5888  -9.5209  -8.9459  -8.7877  -8.5834  -8.5122  -8.0170
    -7.8848  -7.7729  -7.6375  -7.5117  -7.5096  -7.4533  -7.4229  -6.3630
    -6.3432  -6.0939  -6.0330  -5.9659  -5.9178  -5.8728  -5.8476  -5.8270
    -5.5351  -5.4869  -5.3690  -4.9324  -4.8510  -4.8220  -4.7003  -4.6166
    -4.5355  -4.4402  -4.2377  -4.0991  -3.9956  -3.9940  -3.9778  -3.9569
    -3.6503  -3.6304  -3.5405  -3.5016  -3.4164  -3.4044  -3.3677  -3.3593
    -3.2685  -3.1945  -3.0885  -3.0694  -3.0248  -3.0115  -3.0115  -2.9969
    -2.8800  -2.8728  -2.8532  -2.8101  -2.7956  -2.7642  -2.7565  -2.7334
    -2.7308  -2.7274  -2.5622  -2.4910  -2.3624  -2.3422  -2.3356  -2.3329
    -2.2042  -2.1986  -2.1782  -2.1681  -2.1598  -2.1593  -2.1592  -2.1590
    -2.1417  -2.0298  -2.0291  -2.0285  -2.0283  -1.9818  -1.9650  -1.9625
    -1.8990  -1.8489  -1.7889  -1.7679  -1.7465  -1.7453  -1.7452  -1.7447
    -1.6984  -1.6981  -1.6764  -1.6655  -1.6646  -1.6346  -1.6093  -1.5797
    -1.5725  -1.5692  -1.5649  -1.5484  -1.5405  -1.5400  -1.5393  -1.5228
    -1.5220  -1.4719  -1.4512  -1.4464  -1.4281  -1.4222  -1.3876  -1.3834
    -1.3789  -1.3603  -1.3065  -1.2760  -1.2690  -1.2668  -1.2573  -1.2197
    -1.2185  -1.1989  -1.1978  -1.1746  -1.1717  -1.1254  -1.1249  -1.1167
    -1.1037  -1.0713  -1.0561  -1.0480  -1.0432  -1.0367  -1.0361  -1.0315
    -1.0304  -1.0280  -1.0279  -1.0245  -1.0232  -1.0066  -0.9986  -0.9607
    -0.9556  -0.9445  -0.9390  -0.9279  -0.9278  -0.9262  -0.9241  -0.9181
    -0.8752  -0.8747  -0.8680  -0.8673  -0.8637  -0.8630  -0.8620  -0.8620
    -0.8608  -0.8576  -0.8558  -0.8557  -0.8557  -0.8542  -0.8505  -0.8498
    -0.8434  -0.8399  -0.8377  -0.8154  -0.7950  -0.7854  -0.6979  -0.6978
    -0.6912  -0.6905  -0.6744  -0.6632  -0.6499  -0.6495  -0.6285  -0.6281
    -0.6212  -0.6159  -0.6149  -0.6074  -0.6071  -0.5971  -0.5713  -0.5711
    -0.5699  -0.5692  -0.5626  -0.5617  -0.5547  -0.5478  -0.5012  -0.5005
    -0.4466  -0.4461  -0.4380  -0.4363  -0.4335  -0.4317  -0.4189  -0.4178
    -0.4127  -0.4125  -0.4120  -0.4113  -0.4092  -0.4078  -0.3942  -0.3930
    -0.3927  -0.3846  -0.3817  -0.3815  -0.3594  -0.3587  -0.3126  -0.3071
    -0.3034  -0.2988  -0.2986  -0.2719  -0.2718  -0.2717  -0.2717  -0.2590
    -0.2571  -0.2562  -0.2504  -0.2499  -0.2304  -0.2296  -0.2278  -0.2259
    -0.2238  -0.2232  -0.2227  -0.2222  -0.2221  -0.2162  -0.2002  -0.1986
    -0.1978  -0.1965  -0.1958  -0.1810  -0.1324  -0.1310  -0.1297  -0.1256
    -0.1238  -0.1096  -0.0843  -0.0827  -0.0803  -0.0779  -0.0738  -0.0711
    -0.0709  -0.0682  -0.0681  -0.0599  -0.0570  -0.0271  -0.0211  -0.0199
    -0.0161  -0.0136  -0.0067   0.0119   0.0130   0.0140   0.0141   0.0184
     0.0226   0.0367   0.0373   0.0388   0.0391   0.0405   0.0409   0.0535
     0.0554   0.0558   0.0559   0.0588   0.0653   0.0700   0.0712   0.0925
     0.0957   0.1110   0.1255   0.1274   0.1512   0.1546   0.1596   0.1812
     0.1888   0.2257   0.2285   0.2301   0.2306   0.2316   0.2349   0.2433
     0.2548   0.2627   0.2633   0.2637   0.2639   0.2702   0.2706   0.2773
     0.3186   0.3303   0.3329   0.3351   0.3369   0.3468   0.3495   0.3690
     0.3720   0.3722   0.3757   0.3769   0.4005   0.4050   0.4071   0.4091
     0.4174   0.4262   0.4272   0.4300   0.4316   0.4630   0.4713   0.4839
     0.4856   0.4884   0.4888   0.4890   0.4975   0.5147   0.5148   0.5176
     0.5215   0.5243   0.5265   0.5276   0.5277   0.5307   0.5356   0.5394
     0.5407   0.5415   0.5429   0.5450   0.5571   0.5572   0.5698   0.5874
     0.5980   0.5981   0.6036   0.6057   0.6362   0.6371   0.6390   0.6392
     0.6424   0.6438   0.6445   0.6466   0.6484   0.6519   0.6629   0.6701
     0.6718   0.6726   0.6731   0.6795   0.6800   0.6884   0.6897   0.7004
     0.7019   0.7038   0.7052   0.7158   0.7235   0.7292   0.7349   0.7381
     0.7413   0.7413   0.7422   0.7464   0.7500   0.7514   0.7594   0.7645
     0.7801   0.7801   0.7974   0.7985   0.8056   0.8120   0.8132   0.8136
     0.8149   0.8172   0.8467   0.8470   0.8629   0.8631   0.8687   0.8689
     0.8796   0.8830   0.8909   0.8930   0.8940   0.8946   0.8994   0.9126
     0.9254   0.9285   0.9286   0.9311   0.9371   0.9385   0.9485   0.9586
     0.9684   0.9760   0.9783   0.9885   0.9889   0.9905   0.9936   0.9987
[...]
     3.8505   3.8552   3.8613   3.8864   3.9447   3.9613   3.9920   3.9921
     3.9976   4.0043   4.0348   4.0354   4.0646   4.2194   4.2243   4.2665
     4.2833   4.3446   4.4228   4.6578   4.7501   4.7662   4.8389   4.8501
     5.2958   5.3399   5.3704   5.4928   5.5824   5.7373   5.7684   5.7778
     5.9153   5.9285   6.1468   6.3430   6.3456   6.3484   6.3890   6.4473
     6.4478   6.5134   6.5159   6.5322   6.6004   6.6006   6.6917   6.7200
     6.7537   6.7665   6.7811   6.7854   6.9898   6.9929   7.0358   7.0653
     7.0809   7.1303   7.3394   7.3543   7.5366   7.5680   7.5853   7.6782
     7.6794   7.7161   7.7227   7.9338   8.0137   8.0852   8.0964   8.1725
     8.2074   8.3021   8.3055   8.3075   8.3154   8.3247   8.3269   8.3886
     8.3960   8.3994   8.4011   8.5116   8.5168   8.5544   8.6617   8.6638
     8.6860   8.6975   8.7952   8.7996   8.8169   8.8186   8.8590   8.8872
     8.9830   9.0406   9.0679   9.0765   9.0934   9.0978   9.1578   9.1620
     9.1686   9.3391   9.3472   9.4314   9.5160   9.5644   9.5808   9.6454
     9.6751   9.7048   9.7780   9.8238  10.0155  10.0354  10.0673

[...]

          k = 0.2500-0.2165 0.0000 (256316 PWs)   bands (ev):

[...]

          k =-0.5000 0.0000 0.0000 (256496 PWs)   bands (ev):

[...]

          k =-0.5000-0.2165 0.0000 (256328 PWs)   bands (ev):

   -17.1405 -15.9318 -15.7619 -15.7435 -15.2901 -15.1719 -15.0827 -15.0639
   -13.9995 -13.7911 -13.6626 -13.6318 -12.6350 -12.4446 -11.9530 -11.9260
   -11.8878 -11.7358 -11.6535 -11.5854 -11.4797 -11.4457 -11.3943 -11.3242
    -9.9947  -9.9828  -9.7409  -9.6693  -9.2033  -8.8746  -8.7755  -8.7336
    -8.2530  -8.2194  -8.0161  -8.0049  -6.5215  -6.3379  -6.1560  -5.9655
    -5.8666  -5.6007  -5.3697  -5.2872  -5.2613  -5.2522  -5.1912  -5.1889
    -5.1885  -5.1563  -5.0028  -4.9432  -4.9322  -4.4466  -4.4206  -4.3555
    -4.3372  -4.2948  -4.2119  -4.2049  -4.2018  -4.2018  -4.2009  -4.1681
    -4.0688  -4.0473  -3.9221  -3.8772  -3.8655  -3.8624  -3.6943  -3.6807
    -3.6776  -3.6580  -3.6390  -3.5879  -3.5145  -3.4709  -3.4460  -3.4325
    -3.1590  -3.0811  -3.0557  -3.0525  -2.6632  -2.6165  -2.5882  -2.5868
    -2.5867  -2.5862  -2.5503  -2.5355  -2.5256  -2.5219  -2.4429  -2.3940
    -2.1787  -2.1296  -2.1150  -2.1086  -2.1014  -2.0780  -2.0610  -2.0364
    -2.0273  -2.0219  -2.0213  -1.9969  -1.9264  -1.8113  -1.8107  -1.8100
    -1.8093  -1.7712  -1.7431  -1.7382  -1.5725  -1.5380  -1.5254  -1.5250
    -1.5011  -1.5010  -1.5009  -1.5009  -1.4733  -1.4521  -1.4515  -1.4484
    -1.4415  -1.4404  -1.4399  -1.4390  -1.3925  -1.3925  -1.3921  -1.3919
    -1.3900  -1.3900  -1.3891  -1.3891  -1.3661  -1.3660  -1.3659  -1.3659
    -1.3261  -1.3184  -1.3164  -1.3157  -1.3140  -1.2479  -1.2426  -1.2417
    -1.2404  -1.1987  -1.1986  -1.1984  -1.1984  -1.1827  -1.1807  -1.1801
    -1.1796  -1.1348  -1.1343  -1.1314  -1.1307  -1.1263  -1.1240  -1.1235
    -1.1233  -1.1213  -1.1189  -1.1151  -1.1086  -1.0653  -1.0650  -1.0646
    -1.0643  -1.0502  -1.0480  -1.0477  -1.0477  -1.0464  -1.0456  -1.0450
    -1.0450  -1.0450  -1.0095  -1.0006  -0.8932  -0.8925  -0.8916  -0.8914
    -0.8609  -0.8607  -0.8604  -0.8604  -0.8197  -0.7794  -0.7788  -0.7781
    -0.7781  -0.7766  -0.7751  -0.7727  -0.7720  -0.7716  -0.7710  -0.7694
    -0.7129  -0.7083  -0.7079  -0.7078  -0.7032  -0.6977  -0.6962  -0.6957
    -0.6900  -0.6797  -0.6769  -0.6761  -0.6633  -0.6248  -0.5992  -0.5889
    -0.5737  -0.5712  -0.5707  -0.5694  -0.5151  -0.5073  -0.5071  -0.5071
    -0.5021  -0.4630  -0.4585  -0.4577  -0.4507  -0.4380  -0.4371  -0.4369
    -0.4368  -0.4321  -0.4163  -0.4105  -0.3980  -0.3979  -0.3970  -0.3969
    -0.3760  -0.3589  -0.3587  -0.3566  -0.3434  -0.2818  -0.2818  -0.2812
    -0.2812  -0.2658  -0.2658  -0.2653  -0.2652  -0.2532  -0.2488  -0.2482
    -0.2467  -0.1851  -0.1672  -0.1664  -0.1659  -0.1655  -0.1623  -0.1623
    -0.1617  -0.1617  -0.1604  -0.1585  -0.1528  -0.1314  -0.1202  -0.1202
    -0.1201  -0.1199  -0.1078  -0.1076  -0.1074  -0.1069  -0.1042  -0.1041
    -0.1039  -0.1035  -0.0384  -0.0363  -0.0345  -0.0345  -0.0169  -0.0095
    -0.0071  -0.0067   0.0022   0.0343   0.0404   0.0425   0.0461   0.0536
     0.0713   0.0715   0.0719   0.0723   0.0757   0.0790   0.0802   0.0804
     0.0842   0.0888   0.0891   0.0893   0.0917   0.0941   0.0955   0.0982
     0.0989   0.0989   0.0990   0.0994   0.1153   0.1156   0.1157   0.1167
     0.1426   0.1426   0.1429   0.1429   0.1518   0.1529   0.1530   0.1534
     0.1633   0.2028   0.2028   0.2036   0.2036   0.2332   0.2352   0.2354
     0.2365   0.2490   0.2745   0.2810   0.2936   0.3031   0.3159   0.3174
     0.3198   0.3200   0.3239   0.3240   0.3387   0.3394   0.3422   0.3423
     0.3527   0.3528   0.3537   0.3537   0.3596   0.3599   0.3602   0.3606
     0.3640   0.3671   0.3725   0.3728   0.4126   0.4142   0.4272   0.4369
     0.4442   0.4454   0.4455   0.4470   0.4519   0.4529   0.4583   0.4603
     0.4621   0.4626   0.4649   0.4772   0.4956   0.4975   0.4996   0.5011
     0.5036   0.5037   0.5041   0.5089   0.5422   0.5431   0.5434   0.5442
     0.5468   0.5555   0.5565   0.5589   0.5598   0.5602   0.5607   0.5620
     0.5669   0.5670   0.5682   0.5683   0.5813   0.5826   0.5832   0.5834
     0.5938   0.5970   0.5990   0.6003   0.6606   0.6641   0.6648   0.6655
     0.6688   0.6722   0.6733   0.6747   0.6750   0.6765   0.6772   0.6792
     0.6862   0.6959   0.7030   0.7060   0.7201   0.7203   0.7209   0.7210
     0.7219   0.7227   0.7235   0.7237   0.7682   0.7729   0.7765   0.7770
     0.8012   0.8016   0.8031   0.8033   0.8059   0.8093   0.8235   0.8306
     0.8389   0.8391   0.8397   0.8398   0.8642   0.8656   0.8679   0.8679
     0.9167   0.9167   0.9173   0.9174   0.9462   0.9467   0.9478   0.9479
     0.9971   0.9977   0.9992   1.0013   1.0044   1.0105   1.0146   1.0151
[...]
     3.9497   4.2105   4.2106   4.2129   4.2222   4.3171   4.3240   4.3389
     4.3397   4.4489   4.4807   4.5040   4.5136   4.5278   4.5691   4.5742
     4.6582   4.7785   4.8347   4.8611   4.8772   5.0136   5.0481   5.0565
     5.1577   5.1668   5.1784   5.1825   5.1978   5.2284   5.2360   5.2710
     5.3743   5.3790   5.3805   5.3841   5.4669   5.5400   5.6295   5.6388
     5.7416   5.7501   5.7511   5.7528   5.8636   5.8926   5.9101   5.9149
     6.7726   6.7739   6.7741   6.7746   7.0815   7.1070   7.1111   7.1147
     7.1159   7.1196   7.1210   7.1253   7.2530   7.2958   7.2993   7.3014
     7.3392   7.3613   7.3614   7.3632   7.4168   7.5914   7.6116   7.6232
     7.6391   7.6815   7.6890   7.7343   8.0037   8.0772   8.0973   8.1414
     8.2172   8.2254   8.2311   8.2362   8.2644   8.3108   8.3798   8.3834
     8.8835   8.8893   8.8896   8.8908   8.9140   8.9155   8.9168   8.9181
     8.9542   8.9578   8.9585   8.9618   9.1092   9.1139   9.1211   9.1215
     9.3218   9.3477   9.3569   9.3633   9.4769   9.4944   9.5084   9.5113
     9.5702   9.6014   9.6154   9.6210   9.9110   9.9259   9.9517

     the Fermi energy is     3.3134 ev

!    total energy              =  -12707.07753961 Ry
     Harris-Foulkes estimate   =  -12707.07753962 Ry
     estimated scf accuracy    <          6.6E-09 Ry

     The total energy is the sum of the following terms:

     one-electron contribution = -109287.16861017 Ry
     hartree contribution      =   56004.62521534 Ry
     xc contribution           =   -4447.43475736 Ry
     ewald contribution        =   45029.24499359 Ry
     Dispersion Correction     =      -2.98240001 Ry
     smearing contrib. (-TS)   =      -3.36198101 Ry

     convergence has been achieved in  48 iterations

     Writing output data file gc.save

     General routines

     Parallel routines

   This run was terminated on:   1:20:20  15Mar2017

   JOB DONE.