     Program PWSCF v.5.4.0 starts on 26Apr2017 at 18:55:49

     Current dimensions of program PWSCF are:
     Max number of different atomic species (ntypx) = 10
     Max number of k-points (npk) =  40000
     Max angular momentum in pseudopotentials (lmaxx) =  3

     Parameters for Dispersion Correction:
       atom      VdW radius       C_6

        Cu         2.952        374.666
        C_h        2.744         60.710
        C          2.744         60.710
        H          1.892          4.857

     bravais-lattice index     =            0
     lattice parameter (alat)  =      13.9425  a.u.
     unit-cell volume          =   21209.0878 (a.u.)^3
     number of atoms/cell      =          151
     number of atomic types    =            4
     number of electrons       =      1298.00
     number of Kohn-Sham states=          779
     kinetic-energy cutoff     =      80.0000  Ry
     charge density cutoff     =     320.0000  Ry
     convergence threshold     =      1.0E-08
     mixing beta               =       0.7000
     number of iterations used =            8  local-TF  mixing
     Exchange-correlation      =  SLA  PW   PBE  PBE ( 1  4  3  4 0 0)

     celldm(1)=  13.942539  celldm(2)=   0.000000  celldm(3)=   0.000000
     celldm(4)=   0.000000  celldm(5)=   0.000000  celldm(6)=   0.000000

     crystal axes: (cart. coord. in units of alat)
               a(1) = (   1.000000   0.000000   0.000000 )
               a(2) = (   0.000000   2.309401   0.000000 )
               a(3) = (   0.000000   0.000000   3.388418 )

     reciprocal axes: (cart. coord. in units 2 pi/alat)
               b(1) = (  1.000000  0.000000  0.000000 )
               b(2) = (  0.000000  0.433013  0.000000 )
               b(3) = (  0.000000  0.000000  0.295123 )

     PseudoPot. # 1 for Cu read from file:
     /home/549/hxw549/Short/pseudopotentials/Cu.pbe-n-van_ak.UPF
     MD5 check sum: 601f7c30f7467666bec936e0661ce3e1
     Pseudo is Ultrasoft + core correction, Zval = 11.0
     Generated by new atomic code, or converted to UPF format
     Using radial grid of  867 points,  6 beta functions with:
                l(1) =   0
                l(2) =   0
                l(3) =   1
                l(4) =   1
                l(5) =   2
                l(6) =   2
     Q(r) pseudized with  8 coefficients,  rinner =    1.400   1.400   1.400
                                                       1.400   1.400

     PseudoPot. # 2 for C  read from file:
     /home/549/hxw549/Short/pseudopotentials/C.star1s-pbe-mt_gipaw.UPF
     MD5 check sum: ef0cb3dee31bd9e4ba2a832a2c716264
     Pseudo is Norm-conserving, Zval =  5.0
     Generated by new atomic code, or converted to UPF format
     Using radial grid of 1073 points,  1 beta functions with:
                l(1) =   0

     PseudoPot. # 3 for C  read from file:
     /home/549/hxw549/Short/pseudopotentials/C.pbe-mt_gipaw.UPF
     MD5 check sum: 5ac2f21f2c440b14befe521540822c15
     Pseudo is Norm-conserving, Zval =  4.0
     Generated by new atomic code, or converted to UPF format
     Using radial grid of 1073 points,  1 beta functions with:
                l(1) =   0

     PseudoPot. # 4 for H  read from file:
     /home/549/hxw549/Short/pseudopotentials/H.pbe-van_ak.UPF
     MD5 check sum: 077eb6d537518a38cb46c6de387227b7
     Pseudo is Ultrasoft, Zval =  1.0
     Generated by new atomic code, or converted to UPF format
     Using radial grid of  615 points,  1 beta functions with:
                l(1) =   0
     Q(r) pseudized with  8 coefficients,  rinner =    0.800

     atomic species   valence    mass     pseudopotential
        Cu            11.00    63.54600     Cu( 1.00)
        C_h            5.00    12.01070     C ( 1.00)
        C              4.00    12.01070     C ( 1.00)
        H              1.00     1.00783     H ( 1.00)

     No symmetry found

   Cartesian axes

     site n.     atom                  positions (alat units)
         1           Cu  tau(   1) = (   0.0023701   0.0005531   0.9912775  )
         2           Cu  tau(   2) = (   0.2522943   0.2298133   0.9926653  )
         3           Cu  tau(   3) = (   0.5025296   0.0001495   0.9914819  )
         4           Cu  tau(   4) = (   0.7524013   0.2299767   0.9924321  )
         5           Cu  tau(   5) = (   0.0025375   0.4601610   0.9926740  )
         6           Cu  tau(   6) = (   0.2531029   0.6915518   0.9925774  )
         7           Cu  tau(   7) = (   0.5026857   0.4598738   0.9931577  )
         8           Cu  tau(   8) = (   0.7528923   0.6915806   0.9923958  )
         9           Cu  tau(   9) = (   0.0033284   0.9235327   0.9914067  )
        10           Cu  tau(  10) = (   0.2536458   1.1551632   0.9916268  )
        11           Cu  tau(  11) = (   0.5031110   0.9237667   0.9921888  )
        12           Cu  tau(  12) = (   0.7532464   1.1549911   0.9918572  )
        13           Cu  tau(  13) = (   0.0031228   1.3872533   0.9902750  )
        14           Cu  tau(  14) = (   0.2531675   1.6194281   0.9899745  )
        15           Cu  tau(  15) = (   0.5035730   1.3876186   0.9919566  )
        16           Cu  tau(  16) = (   0.7530729   1.6196848   0.9896121  )
        17           Cu  tau(  17) = (   0.0031753   1.8498056   0.9901986  )
        18           Cu  tau(  18) = (   0.2527161   2.0803759   0.9900461  )
        19           Cu  tau(  19) = (   0.5026297   1.8505913   0.9887375  )
        20           Cu  tau(  20) = (   0.7525822   2.0801547   0.9906741  )
        21           Cu  tau(  21) = (   0.0029714   0.2294365   1.2412071  )
        22           Cu  tau(  22) = (   0.2530781  -0.0006502   1.2409225  )
        23           Cu  tau(  23) = (   0.5031218   0.2294308   1.2412588  )
        24           Cu  tau(  24) = (   0.7530282  -0.0002383   1.2413913  )
        25           Cu  tau(  25) = (   0.0037474   0.6915272   1.2388332  )
        26           Cu  tau(  26) = (   0.2534508   0.4599901   1.2402593  )
        27           Cu  tau(  27) = (   0.5034705   0.6915691   1.2392123  )
        28           Cu  tau(  28) = (   0.7531709   0.4594197   1.2392921  )
        29           Cu  tau(  29) = (   0.0044018   1.1568475   1.2366386  )
        30           Cu  tau(  30) = (   0.2539968   0.9236930   1.2387872  )
        31           Cu  tau(  31) = (   0.5040972   1.1559828   1.2392214  )
        32           Cu  tau(  32) = (   0.7544796   0.9232473   1.2393972  )
        33           Cu  tau(  33) = (   0.0041560   1.6193309   1.2388143  )
        34           Cu  tau(  34) = (   0.2536870   1.3888299   1.2368786  )
        35           Cu  tau(  35) = (   0.5035967   1.6211676   1.2364274  )
        36           Cu  tau(  36) = (   0.7545803   1.3894447   1.2365008  )
        37           Cu  tau(  37) = (   0.0032782   2.0794921   1.2408876  )
        38           Cu  tau(  38) = (   0.2531897   1.8496993   1.2398460  )
        39           Cu  tau(  39) = (   0.5034349   2.0792346   1.2399824  )
        40           Cu  tau(  40) = (   0.7540034   1.8497362   1.2391936  )
        41           Cu  tau(  41) = (   0.0038687  -0.0013266   1.4920112  )
        42           Cu  tau(  42) = (   0.2541654   0.2276460   1.4894066  )
        43           Cu  tau(  43) = (   0.5047584  -0.0006080   1.4915878  )
        44           Cu  tau(  44) = (   0.7547324   0.2291704   1.4909609  )
        45           Cu  tau(  45) = (   0.0039754   0.4590212   1.4890642  )
        46           Cu  tau(  46) = (   0.2548312   0.6910340   1.4878485  )
        47           Cu  tau(  47) = (   0.5047712   0.4598869   1.4896285  )
        48           Cu  tau(  48) = (   0.7553903   0.6899110   1.4873405  )
        49           Cu  tau(  49) = (   0.0070936   0.9252700   1.4857464  )
        50           Cu  tau(  50) = (   0.2544914   1.1583113   1.4855396  )
        51           Cu  tau(  51) = (   0.5052697   0.9225779   1.4862390  )
        52           Cu  tau(  52) = (   0.7578866   1.1594260   1.4829290  )
        53           Cu  tau(  53) = (   0.0061710   1.3887674   1.4884912  )
        54           Cu  tau(  54) = (   0.2537878   1.6193626   1.4889766  )
        55           Cu  tau(  55) = (   0.5051385   1.3936799   1.4817811  )
        56           Cu  tau(  56) = (   0.7568507   1.6201381   1.4883657  )
        57           Cu  tau(  57) = (   0.0050292   1.8504379   1.4908492  )
        58           Cu  tau(  58) = (   0.2543320   2.0794405   1.4914776  )
        59           Cu  tau(  59) = (   0.5047577   1.8492729   1.4900454  )
        60           Cu  tau(  60) = (   0.7543994   2.0791456   1.4919649  )
[...]
       103           C   tau( 103) = (   0.1562699  -0.0021316   2.3849102  )
       104           C   tau( 104) = (   0.1556573   0.3820899   2.4221379  )
       105           C   tau( 105) = (   0.3226180   0.0944783   2.3904494  )
       106           C   tau( 106) = (   0.3223383   0.2862627   2.4088131  )
       107           C   tau( 107) = (   0.4895262  -0.0019479   2.3822011  )
       108           C   tau( 108) = (   0.4890551   0.3830602   2.4146001  )
       109           C   tau( 109) = (   0.6564742   0.0947236   2.3868576  )
       110           C   tau( 110) = (   0.6561136   0.2868244   2.4023497  )
       111           C   tau( 111) = (   0.8229854  -0.0018807   2.3819412  )
       112           C   tau( 112) = (   0.8228886   0.3824320   2.4140750  )
       113           C   tau( 113) = (  -0.0113374   0.6701957   2.4479895  )
       114           C   tau( 114) = (  -0.0122261   0.8629609   2.4539182  )
       115           C   tau( 115) = (   0.1552772   0.5730334   2.4485801  )
       116           C   tau( 116) = (   0.1541436   0.9597968   2.4617561  )
       117           C   tau( 117) = (   0.3213128   0.6692623   2.4599181  )
       118           C_h tau( 118) = (   0.3184984   0.8611734   2.4642354  )
       119           C   tau( 119) = (   0.4884460   0.5740072   2.4346705  )
       120           C   tau( 120) = (   0.4827484   0.9556609   2.3894952  )
       121           C   tau( 121) = (   0.4216377   0.9238752   2.1851263  )
       122           H   tau( 122) = (   0.4104643   0.7731797   2.1656364  )
       123           H   tau( 123) = (   0.2798076   0.9763551   2.1781611  )
       124           C   tau( 124) = (   0.6562846   0.6708059   2.4312793  )
       125           C   tau( 125) = (   0.6576716   0.8611452   2.4235509  )
       126           C   tau( 126) = (   0.8230035   0.5740997   2.4324330  )
       127           C   tau( 127) = (   0.8210756   0.9581713   2.4305772  )
       128           C   tau( 128) = (  -0.0108793   1.2468637   2.4107300  )
       129           C   tau( 129) = (  -0.0105860   1.4397120   2.3925802  )
       130           C   tau( 130) = (   0.1550752   1.1519598   2.4318622  )
       131           C   tau( 131) = (   0.1559600   1.5365928   2.3915931  )
       132           C   tau( 132) = (   0.3225252   1.2490795   2.4182764  )
       133           C   tau( 133) = (   0.3224784   1.4410472   2.4020022  )
       134           C   tau( 134) = (   0.4882033   1.1552145   2.4137647  )
       135           C   tau( 135) = (   0.4891463   1.5364117   2.3919873  )
       136           C   tau( 136) = (   0.6543677   1.2476657   2.4045687  )
       137           C   tau( 137) = (   0.6555603   1.4404126   2.3944468  )
       138           C   tau( 138) = (   0.8223089   1.1510513   2.4117753  )
       139           C   tau( 139) = (   0.8224651   1.5358903   2.3850960  )
       140           C   tau( 140) = (  -0.0103791   1.8251840   2.3752745  )
       141           C   tau( 141) = (  -0.0101573   2.0179628   2.3758076  )
       142           C   tau( 142) = (   0.1564209   1.7289726   2.3810649  )
       143           C   tau( 143) = (   0.1564182   2.1145480   2.3773901  )
       144           C   tau( 144) = (   0.3231115   1.8252836   2.3819357  )
       145           C   tau( 145) = (   0.3233013   2.0180263   2.3790683  )
       146           C   tau( 146) = (   0.4894996   1.7290179   2.3840607  )
       147           C   tau( 147) = (   0.4898444   2.1146176   2.3799633  )
       148           C   tau( 148) = (   0.6561199   1.8251554   2.3789644  )
       149           C   tau( 149) = (   0.6562931   2.0180054   2.3773154  )
       150           C   tau( 150) = (   0.8226788   1.7285066   2.3770501  )
       151           C   tau( 151) = (   0.8231952   2.1146619   2.3757520  )

     number of k points=     6  gaussian smearing, width (Ry)=  0.1000
                       cart. coord. in units 2pi/alat
        k(    1) = (   0.0000000   0.0000000   0.0000000), wk =   0.2500000
        k(    2) = (   0.0000000  -0.2165064   0.0000000), wk =   0.2500000
        k(    3) = (   0.2500000   0.0000000   0.0000000), wk =   0.5000000
        k(    4) = (   0.2500000  -0.2165064   0.0000000), wk =   0.5000000
        k(    5) = (  -0.5000000   0.0000000   0.0000000), wk =   0.2500000
        k(    6) = (  -0.5000000  -0.2165064   0.0000000), wk =   0.2500000

     Largest allocated arrays     est. size (Mb)     dimensions
     Largest temporary arrays     est. size (Mb)     dimensions

     Initial potential from superposition of free atoms
     Check: negative starting charge=   -0.001831

     starting charge 1272.31749, renormalised to 1298.00000

     negative rho (up, down):  1.868E-03 0.000E+00
     Starting wfc are 1294 randomized atomic wfcs

     Self-consistent Calculation

     iteration #  1     ecut=    80.00 Ry     beta=0.70
     Davidson diagonalization with overlap
     c_bands:  3 eigenvalues not converged
     c_bands:  4 eigenvalues not converged
     c_bands:  2 eigenvalues not converged
     c_bands:  3 eigenvalues not converged
     c_bands:  4 eigenvalues not converged
     c_bands:  2 eigenvalues not converged
     ethr =  1.00E-04,  avg # of iterations = 40.0

     negative rho (up, down):  2.750E+01 0.000E+00

     total energy              =   -9447.49338044 Ry
     Harris-Foulkes estimate   =  -17598.60518096 Ry
     estimated scf accuracy    <  189798.23887083 Ry

     iteration #  2     ecut=    80.00 Ry     beta=0.70
     Davidson diagonalization with overlap
     ethr =  1.00E-02,  avg # of iterations = 16.0

[...]

     iteration # 36     ecut=    80.00 Ry     beta=0.70
     Davidson diagonalization with overlap
     c_bands:  1 eigenvalues not converged
     ethr =  2.49E-09,  avg # of iterations = 10.5

[...]

     total energy              =  -12720.72449780 Ry
     Harris-Foulkes estimate   =  -12720.72449778 Ry
     estimated scf accuracy    <       0.00000002 Ry

     iteration # 43     ecut=    80.00 Ry     beta=0.70
     Davidson diagonalization with overlap
     ethr =  1.40E-12,  avg # of iterations =  1.8

     negative rho (up, down):  2.047E-03 0.000E+00

     End of self-consistent calculation

          k = 0.0000 0.0000 0.0000 (256287 PWs)   bands (ev):

   -16.9967 -16.1494 -15.9234 -15.2424 -14.8827 -14.5815 -14.4723 -14.1670
   -14.1083 -13.9748 -13.9623 -13.3166 -13.1811 -13.0349 -12.9799 -12.9361
   -12.9131 -11.5183 -11.4815 -11.3638 -11.2354 -11.0820 -10.3933 -10.0305
    -9.5716  -9.5083  -9.3620  -9.2297  -8.6790  -8.6216  -8.4999  -8.4356
    -7.8386  -7.6861  -7.6086  -7.4790  -7.4212  -7.4087  -7.3854  -7.3659
    -6.1943  -6.1261  -6.0154  -5.9843  -5.8969  -5.8074  -5.7461  -5.7333
    -5.7068  -5.4688  -5.4484  -4.9675  -4.7875  -4.7082  -4.6471  -4.6277
    -4.5174  -4.3897  -4.3480  -4.2629  -4.1190  -4.0305  -3.9652  -3.9493
    -3.8593  -3.8051  -3.5092  -3.4406  -3.4019  -3.3839  -3.3798  -3.3383
    -3.2870  -3.2071  -3.1373  -3.1141  -3.0304  -2.9973  -2.9937  -2.9858
    -2.9711  -2.9374  -2.8952  -2.8557  -2.7770  -2.7410  -2.6901  -2.6448
    -2.6363  -2.5911  -2.5646  -2.5415  -2.4782  -2.4456  -2.3197  -2.3094
    -2.2831  -2.2788  -2.1754  -2.1636  -2.1606  -2.1494  -2.1368  -2.1342
    -2.1311  -2.1277  -2.0082  -2.0016  -1.9971  -1.9949  -1.9741  -1.9339
    -1.9312  -1.8901  -1.8691  -1.8215  -1.7591  -1.7425  -1.7210  -1.7152
    -1.7053  -1.6940  -1.6719  -1.6536  -1.6416  -1.6359  -1.6020  -1.5869
    -1.5701  -1.5581  -1.5514  -1.5427  -1.5246  -1.5178  -1.5131  -1.5021
    -1.4941  -1.4885  -1.4575  -1.4454  -1.4066  -1.4029  -1.3870  -1.3345
    -1.3273  -1.3029  -1.2969  -1.2793  -1.2571  -1.2436  -1.2395  -1.2295
    -1.2242  -1.2005  -1.1894  -1.1750  -1.1682  -1.1665  -1.1479  -1.1419
    -1.0683  -1.0572  -1.0518  -1.0433  -1.0411  -1.0332  -1.0278  -1.0205
    -1.0119  -1.0079  -1.0050  -1.0005  -0.9975  -0.9866  -0.9770  -0.9761
    -0.9647  -0.9544  -0.9330  -0.9256  -0.9231  -0.9069  -0.9041  -0.8960
    -0.8877  -0.8729  -0.8650  -0.8522  -0.8513  -0.8473  -0.8423  -0.8415
    -0.8355  -0.8346  -0.8329  -0.8286  -0.8272  -0.8265  -0.8231  -0.8184
    -0.8171  -0.8120  -0.7858  -0.7666  -0.7583  -0.7433  -0.6965  -0.6762
    -0.6712  -0.6677  -0.6671  -0.6557  -0.6489  -0.6449  -0.6233  -0.6201
    -0.6107  -0.6065  -0.5907  -0.5809  -0.5789  -0.5764  -0.5657  -0.5547
    -0.5516  -0.5475  -0.5463  -0.5425  -0.5398  -0.5323  -0.5217  -0.5134
    -0.5052  -0.4720  -0.4664  -0.4341  -0.4262  -0.4211  -0.4157  -0.4056
    -0.4038  -0.3948  -0.3913  -0.3888  -0.3875  -0.3841  -0.3793  -0.3782
    -0.3719  -0.3691  -0.3671  -0.3655  -0.3603  -0.3448  -0.3380  -0.3307
    -0.3188  -0.2873  -0.2860  -0.2805  -0.2753  -0.2709  -0.2610  -0.2470
    -0.2468  -0.2439  -0.2397  -0.2333  -0.2320  -0.2263  -0.2222  -0.2132
    -0.2123  -0.2094  -0.2087  -0.2004  -0.1970  -0.1925  -0.1844  -0.1815
    -0.1792  -0.1727  -0.1719  -0.1628  -0.1566  -0.1541  -0.1360  -0.1220
    -0.1079  -0.1053  -0.0968  -0.0925  -0.0809  -0.0695  -0.0650  -0.0552
    -0.0467  -0.0444  -0.0418  -0.0371  -0.0357  -0.0307  -0.0235  -0.0064
    -0.0019   0.0010   0.0123   0.0215   0.0240   0.0253   0.0313   0.0385
     0.0413   0.0441   0.0482   0.0540   0.0579   0.0621   0.0647   0.0663
     0.0697   0.0753   0.0807   0.0831   0.0853   0.0879   0.0963   0.1060
     0.1092   0.1121   0.1219   0.1262   0.1457   0.1511   0.1559   0.1708
     0.1794   0.1903   0.1986   0.2160   0.2327   0.2354   0.2426   0.2474
     0.2587   0.2670   0.2717   0.2750   0.2784   0.2804   0.2961   0.3032
     0.3128   0.3164   0.3365   0.3483   0.3507   0.3607   0.3610   0.3644
     0.3700   0.3821   0.3900   0.3968   0.4001   0.4060   0.4111   0.4155
     0.4266   0.4315   0.4401   0.4514   0.4550   0.4585   0.4725   0.4760
     0.4804   0.4893   0.4961   0.5021   0.5111   0.5177   0.5240   0.5267
     0.5278   0.5328   0.5400   0.5413   0.5511   0.5521   0.5574   0.5632
     0.5647   0.5684   0.5727   0.5761   0.5803   0.5817   0.5837   0.5900
     0.5929   0.6023   0.6084   0.6237   0.6256   0.6301   0.6352   0.6527
     0.6565   0.6604   0.6657   0.6689   0.6723   0.6784   0.6799   0.6853
     0.6882   0.6935   0.6963   0.7014   0.7076   0.7088   0.7096   0.7167
     0.7180   0.7247   0.7290   0.7354   0.7379   0.7440   0.7512   0.7532
     0.7646   0.7655   0.7674   0.7686   0.7708   0.7733   0.7758   0.7825
     0.7869   0.7921   0.8002   0.8129   0.8235   0.8284   0.8340   0.8376
     0.8448   0.8482   0.8609   0.8663   0.8688   0.8735   0.8779   0.8859
     0.8944   0.8976   0.9033   0.9101   0.9148   0.9183   0.9242   0.9306
     0.9324   0.9397   0.9467   0.9527   0.9540   0.9577   0.9631   0.9663
     0.9726   0.9784   0.9832   0.9932   0.9983   1.0012   1.0046   1.0083
[...]
     3.9635   3.9964   4.0132   4.0142   4.0194   4.0238   4.0719   4.1024
     4.1528   4.2277   4.2526   4.3217   4.4212   4.7010   4.7410   4.8238
     4.8523   4.9852   5.0618   5.3138   5.3354   5.3910   5.4691   5.6898
     5.7166   5.7434   5.7881   5.8948   5.9421   5.9705   6.3180   6.3280
     6.3808   6.4383   6.4559   6.4759   6.4982   6.5218   6.5564   6.6569
     6.7226   6.7280   6.7905   6.8143   6.8462   6.8775   6.9038   6.9175
     7.0370   7.0556   7.1158   7.1969   7.3670   7.3912   7.4120   7.5448
     7.5868   7.6488   7.6827   7.6869   7.7260   7.8282   7.9408   8.0891
     8.1013   8.1299   8.1527   8.2091   8.2270   8.2893   8.3174   8.3321
     8.3499   8.3680   8.3708   8.3940   8.4300   8.5170   8.5835   8.5981
     8.6382   8.6419   8.7131   8.7268   8.7531   8.7984   8.8417   8.8468
     8.8577   8.8850   9.0214   9.0447   9.0680   9.0845   9.1456   9.1908
     9.2348   9.2497   9.2666   9.3464   9.3558   9.5402   9.5469   9.5600
     9.5893   9.7060   9.7364   9.8190   9.8391   9.8767   9.9821  10.0615
    10.0645  10.1704  10.1908

[...]

          k = 0.2500-0.2165 0.0000 (256316 PWs)   bands (ev):

[...]

          k =-0.5000 0.0000 0.0000 (256496 PWs)   bands (ev):

[...]

          k =-0.5000-0.2165 0.0000 (256328 PWs)   bands (ev):

   -16.8776 -15.7463 -15.7112 -15.7007 -15.2543 -15.0510 -15.0108 -14.9563
   -13.8966 -13.6892 -13.5714 -13.5232 -12.4068 -12.3612 -11.8999 -11.8940
   -11.7882 -11.6405 -11.5529 -11.4714 -11.4008 -11.3844 -11.2941 -11.2759
   -10.1580  -9.7855  -9.6776  -9.6157  -9.4838  -8.9406  -8.7687  -8.6266
    -8.6236  -8.0576  -8.0226  -7.9057  -7.8877  -6.3591  -6.0214  -5.9660
    -5.8143  -5.6425  -5.4612  -5.2700  -5.2222  -5.1848  -5.1677  -5.1645
    -5.1495  -5.1335  -5.0699  -4.9132  -4.9074  -4.4970  -4.4581  -4.3590
    -4.2803  -4.2550  -4.2223  -4.1886  -4.1777  -4.1701  -4.1663  -4.1121
    -4.0784  -4.0440  -4.0007  -3.8824  -3.8522  -3.8152  -3.7875  -3.6771
    -3.6400  -3.5772  -3.5561  -3.5278  -3.5201  -3.4220  -3.3946  -3.3870
    -3.3311  -3.1725  -3.1395  -3.0704  -2.9736  -2.8443  -2.5901  -2.5596
    -2.5585  -2.5551  -2.5370  -2.5213  -2.5135  -2.5061  -2.4514  -2.4478
    -2.2951  -2.2402  -2.1918  -2.0993  -2.0662  -2.0550  -2.0486  -2.0272
    -2.0173  -2.0106  -1.9962  -1.9928  -1.9502  -1.8804  -1.8605  -1.7925
    -1.7893  -1.7829  -1.7753  -1.7497  -1.6293  -1.5919  -1.5750  -1.5497
    -1.4937  -1.4853  -1.4784  -1.4687  -1.4678  -1.4530  -1.4444  -1.4265
    -1.4234  -1.4223  -1.4134  -1.4125  -1.4007  -1.3849  -1.3743  -1.3702
    -1.3678  -1.3659  -1.3619  -1.3593  -1.3558  -1.3515  -1.3480  -1.3452
    -1.3411  -1.3396  -1.2957  -1.2933  -1.2906  -1.2682  -1.2406  -1.2281
    -1.2216  -1.1974  -1.1889  -1.1807  -1.1782  -1.1708  -1.1665  -1.1617
    -1.1553  -1.1396  -1.1290  -1.1264  -1.1171  -1.1111  -1.1068  -1.1027
    -1.1004  -1.0986  -1.0939  -1.0809  -1.0713  -1.0672  -1.0484  -1.0429
    -1.0393  -1.0329  -1.0310  -1.0280  -1.0230  -1.0207  -1.0201  -1.0197
    -1.0167  -1.0138  -0.9813  -0.9764  -0.9306  -0.9239  -0.8865  -0.8669
    -0.8648  -0.8627  -0.8451  -0.8418  -0.8371  -0.8356  -0.8241  -0.8016
    -0.7660  -0.7609  -0.7536  -0.7493  -0.7458  -0.7393  -0.7388  -0.7363
    -0.7333  -0.7254  -0.7161  -0.6991  -0.6865  -0.6838  -0.6777  -0.6678
    -0.6671  -0.6606  -0.6550  -0.6492  -0.6458  -0.6448  -0.6345  -0.5985
    -0.5590  -0.5542  -0.5520  -0.5420  -0.5372  -0.5314  -0.5179  -0.4906
    -0.4849  -0.4797  -0.4686  -0.4680  -0.4370  -0.4295  -0.4262  -0.4154
    -0.4137  -0.4094  -0.4056  -0.3996  -0.3972  -0.3901  -0.3801  -0.3779
    -0.3753  -0.3653  -0.3586  -0.3560  -0.3459  -0.3258  -0.2967  -0.2797
    -0.2650  -0.2589  -0.2531  -0.2526  -0.2428  -0.2422  -0.2401  -0.2354
    -0.2241  -0.2223  -0.2178  -0.2087  -0.1704  -0.1664  -0.1520  -0.1494
    -0.1449  -0.1386  -0.1365  -0.1332  -0.1321  -0.1264  -0.1202  -0.1135
    -0.1068  -0.1004  -0.0964  -0.0954  -0.0947  -0.0880  -0.0845  -0.0820
    -0.0744  -0.0735  -0.0705  -0.0642  -0.0544  -0.0443  -0.0264  -0.0140
    -0.0087   0.0022   0.0115   0.0232   0.0314   0.0408   0.0481   0.0675
     0.0729   0.0782   0.0809   0.0877   0.0922   0.0944   0.0983   0.1018
     0.1029   0.1062   0.1087   0.1118   0.1151   0.1228   0.1234   0.1263
     0.1284   0.1293   0.1298   0.1302   0.1338   0.1355   0.1405   0.1437
     0.1443   0.1467   0.1534   0.1688   0.1705   0.1726   0.1760   0.1810
     0.1871   0.1882   0.1985   0.2165   0.2207   0.2242   0.2347   0.2401
     0.2424   0.2478   0.2561   0.2646   0.2682   0.2902   0.3235   0.3387
     0.3405   0.3455   0.3464   0.3575   0.3588   0.3652   0.3662   0.3691
     0.3739   0.3775   0.3790   0.3840   0.3866   0.3901   0.3932   0.3963
     0.3972   0.3999   0.4066   0.4093   0.4157   0.4248   0.4339   0.4376
     0.4435   0.4488   0.4557   0.4612   0.4713   0.4775   0.4844   0.4855
     0.4885   0.4905   0.4917   0.4972   0.5005   0.5118   0.5162   0.5206
     0.5209   0.5322   0.5365   0.5400   0.5431   0.5505   0.5523   0.5568
     0.5612   0.5659   0.5694   0.5772   0.5833   0.5869   0.5878   0.5908
     0.5964   0.5998   0.6014   0.6036   0.6055   0.6088   0.6120   0.6155
     0.6247   0.6269   0.6280   0.6406   0.6450   0.6505   0.6540   0.6687
     0.6819   0.6876   0.6926   0.6970   0.6979   0.7039   0.7076   0.7138
     0.7183   0.7244   0.7260   0.7301   0.7380   0.7392   0.7401   0.7447
     0.7490   0.7523   0.7529   0.7557   0.7670   0.7708   0.7819   0.7929
     0.8004   0.8030   0.8170   0.8259   0.8317   0.8343   0.8378   0.8423
     0.8453   0.8569   0.8638   0.8724   0.8746   0.8756   0.8823   0.8885
     0.8909   0.9044   0.9071   0.9302   0.9348   0.9444   0.9517   0.9606
     0.9750   0.9766   0.9827   0.9998   1.0110   1.0177   1.0209   1.0305
[...]
     4.2723   4.3259   4.3315   4.3962   4.4169   4.5213   4.5463   4.5610
     4.6018   4.6702   4.6762   4.7519   4.8353   4.9411   4.9490   5.0115
     5.0611   5.0917   5.1428   5.1541   5.1664   5.1832   5.2086   5.2640
     5.2838   5.3037   5.3317   5.3694   5.4210   5.4686   5.5596   5.6167
     5.6431   5.7439   5.7559   5.7581   5.7647   5.7785   5.8263   5.8436
     5.8805   5.8923   6.1421   6.7432   6.7543   6.8391   6.8508   6.9522
     7.0504   7.0714   7.0977   7.1281   7.1644   7.1773   7.1814   7.1933
     7.2125   7.2894   7.2926   7.3464   7.3634   7.3891   7.4250   7.4398
     7.5364   7.5574   7.6371   7.8245   7.8469   7.8871   7.9264   7.9861
     8.0290   8.0468   8.2132   8.2535   8.2756   8.3153   8.3585   8.3738
     8.4059   8.4080   8.7701   8.8604   8.8726   8.8903   8.9061   8.9150
     8.9208   8.9350   8.9514   8.9529   9.0087   9.0230   9.0963   9.1413
     9.1432   9.1461   9.1591   9.2519   9.3792   9.3928   9.4010   9.4410
     9.4580   9.5091   9.5268   9.5366   9.5474   9.5734   9.5926   9.9275
     9.9529  10.0059  10.0078

     the Fermi energy is     3.3425 ev

!    total energy              =  -12720.72449782 Ry
     Harris-Foulkes estimate   =  -12720.72449780 Ry
     estimated scf accuracy    <          4.4E-09 Ry

     The total energy is the sum of the following terms:

     one-electron contribution = -107927.82547637 Ry
     hartree contribution      =   55329.21197557 Ry
     xc contribution           =   -4452.56058465 Ry
     ewald contribution        =   44336.80090521 Ry
     Dispersion Correction     =      -2.98925395 Ry
     smearing contrib. (-TS)   =      -3.36206363 Ry

     convergence has been achieved in  43 iterations

     Writing output data file gc.save

     General routines

     Parallel routines

   This run was terminated on:  22:45:19  26Apr2017

   JOB DONE.