     Program PWSCF v.5.4.0 starts on 12May2017 at 10:23: 8

     Current dimensions of program PWSCF are:
     Max number of different atomic species (ntypx) = 10
     Max number of k-points (npk) =  40000
     Max angular momentum in pseudopotentials (lmaxx) =  3
     WARNING: atomic wfc #  2 for atom type 4 has zero norm
     WARNING: atomic wfc #  4 for atom type 4 has zero norm
     WARNING: atomic wfc #  5 for atom type 4 has zero norm

     Parameters for Dispersion Correction:
       atom      VdW radius       C_6

        Cu         2.952        374.666
        C_h        2.744         60.710
        C          2.744         60.710
        O          2.536         24.284
        H          1.892          4.857

     bravais-lattice index     =            0
     lattice parameter (alat)  =      13.9425  a.u.
     unit-cell volume          =   21209.0878 (a.u.)^3
     number of atoms/cell      =          152
     number of atomic types    =            5
     number of electrons       =      1309.00
     number of Kohn-Sham states=          786
     kinetic-energy cutoff     =      80.0000  Ry
     charge density cutoff     =     320.0000  Ry
     convergence threshold     =      1.0E-08
     mixing beta               =       0.7000
     number of iterations used =            8  local-TF  mixing
     Exchange-correlation      =  SLA  PW   PBE  PBE ( 1  4  3  4 0 0)

     celldm(1)=  13.942539  celldm(2)=   0.000000  celldm(3)=   0.000000
     celldm(4)=   0.000000  celldm(5)=   0.000000  celldm(6)=   0.000000

     crystal axes: (cart. coord. in units of alat)
               a(1) = (   1.000000   0.000000   0.000000 )
               a(2) = (   0.000000   2.309401   0.000000 )
               a(3) = (   0.000000   0.000000   3.388418 )

     reciprocal axes: (cart. coord. in units 2 pi/alat)
               b(1) = (  1.000000  0.000000  0.000000 )
               b(2) = (  0.000000  0.433013  0.000000 )
               b(3) = (  0.000000  0.000000  0.295123 )

     PseudoPot. # 1 for Cu read from file:
     /home/549/hxw549/Short/pseudopotentials/Cu.pbe-n-van_ak.UPF
     MD5 check sum: 601f7c30f7467666bec936e0661ce3e1
     Pseudo is Ultrasoft + core correction, Zval = 11.0
     Generated by new atomic code, or converted to UPF format
     Using radial grid of  867 points,  6 beta functions with:
                l(1) =   0
                l(2) =   0
                l(3) =   1
                l(4) =   1
                l(5) =   2
                l(6) =   2
     Q(r) pseudized with  8 coefficients,  rinner =    1.400   1.400   1.400
                                                       1.400   1.400

     PseudoPot. # 2 for C  read from file:
     /home/549/hxw549/Short/pseudopotentials/C.star1s-pbe-mt_gipaw.UPF
     MD5 check sum: ef0cb3dee31bd9e4ba2a832a2c716264
     Pseudo is Norm-conserving, Zval =  5.0
     Generated by new atomic code, or converted to UPF format
     Using radial grid of 1073 points,  1 beta functions with:
                l(1) =   0

     PseudoPot. # 3 for C  read from file:
     /home/549/hxw549/Short/pseudopotentials/C.pbe-mt_gipaw.UPF
     MD5 check sum: 5ac2f21f2c440b14befe521540822c15
     Pseudo is Norm-conserving, Zval =  4.0
     Generated by new atomic code, or converted to UPF format
     Using radial grid of 1073 points,  1 beta functions with:
                l(1) =   0

     PseudoPot. # 4 for O  read from file:
     /home/549/hxw549/Short/pseudopotentials/O.pbe-van_gipaw.UPF
     MD5 check sum: 5ce2a047509d4f331db576c963e74b29
     Pseudo is Ultrasoft, Zval =  6.0
     Generated by new atomic code, or converted to UPF format
     Using radial grid of 1095 points,  4 beta functions with:
                l(1) =   0
                l(2) =   0
                l(3) =   1
                l(4) =   1
     Q(r) pseudized with 0 coefficients

     PseudoPot. # 5 for H  read from file:
     /home/549/hxw549/Short/pseudopotentials/H.pbe-van_ak.UPF
     MD5 check sum: 077eb6d537518a38cb46c6de387227b7
     Pseudo is Ultrasoft, Zval =  1.0
     Generated by new atomic code, or converted to UPF format
     Using radial grid of  615 points,  1 beta functions with:
                l(1) =   0
     Q(r) pseudized with  8 coefficients,  rinner =    0.800

     atomic species   valence    mass     pseudopotential
        Cu            11.00    63.54600     Cu( 1.00)
        C_h            5.00    12.01070     C ( 1.00)
        C              4.00    12.01070     C ( 1.00)
        O              6.00    15.99940     O ( 1.00)
        H              1.00     1.00783     H ( 1.00)

     No symmetry found

   Cartesian axes

     site n.     atom                  positions (alat units)
         1           Cu  tau(   1) = (   0.0000842  -0.0003681   0.9999582  )
         2           Cu  tau(   2) = (   0.2500548   0.2313457   0.9998843  )
         3           Cu  tau(   3) = (   0.5000576  -0.0002607   0.9999865  )
         4           Cu  tau(   4) = (   0.7500833   0.2313139   0.9998641  )
         5           Cu  tau(   5) = (   0.0000630   0.4624576   0.9996374  )
         6           Cu  tau(   6) = (   0.2500574   0.6931393   0.9991054  )
         7           Cu  tau(   7) = (   0.5000697   0.4624370   0.9995248  )
         8           Cu  tau(   8) = (   0.7500716   0.6931484   0.9991088  )
         9           Cu  tau(   9) = (   0.0000622   0.9236166   0.9988218  )
        10           Cu  tau(  10) = (   0.2500643   1.1539091   0.9989623  )
        11           Cu  tau(  11) = (   0.5000640   0.9235821   0.9987715  )
        12           Cu  tau(  12) = (   0.7500634   1.1539179   0.9989606  )
        13           Cu  tau(  13) = (   0.0000687   1.3841458   0.9994650  )
        14           Cu  tau(  14) = (   0.2500837   1.6145936   0.9999104  )
        15           Cu  tau(  15) = (   0.5000627   1.3841804   0.9994855  )
        16           Cu  tau(  16) = (   0.7500522   1.6145705   0.9999235  )
        17           Cu  tau(  17) = (   0.0000612   1.8455769   1.0000095  )
        18           Cu  tau(  18) = (   0.2500741   2.0771549   1.0000108  )
        19           Cu  tau(  19) = (   0.5000791   1.8455049   1.0000850  )
        20           Cu  tau(  20) = (   0.7500687   2.0771896   1.0000020  )
        21           Cu  tau(  21) = (   0.0000704   0.2315434   1.2478653  )
        22           Cu  tau(  22) = (   0.2500664  -0.0002381   1.2475273  )
        23           Cu  tau(  23) = (   0.5000670   0.2316783   1.2479035  )
        24           Cu  tau(  24) = (   0.7500740  -0.0002273   1.2475423  )
        25           Cu  tau(  25) = (   0.0000692   0.6936868   1.2480512  )
        26           Cu  tau(  26) = (   0.2500874   0.4630175   1.2481231  )
        27           Cu  tau(  27) = (   0.5000643   0.6936369   1.2480478  )
        28           Cu  tau(  28) = (   0.7500461   0.4629896   1.2480760  )
        29           Cu  tau(  29) = (   0.0000655   1.1534501   1.2482728  )
        30           Cu  tau(  30) = (   0.2500957   0.9236477   1.2480367  )
        31           Cu  tau(  31) = (   0.5000669   1.1533940   1.2482530  )
        32           Cu  tau(  32) = (   0.7500350   0.9236609   1.2480361  )
        33           Cu  tau(  33) = (   0.0000688   1.6141455   1.2484967  )
        34           Cu  tau(  34) = (   0.2500811   1.3834824   1.2485944  )
        35           Cu  tau(  35) = (   0.5000677   1.6141108   1.2487066  )
        36           Cu  tau(  36) = (   0.7500538   1.3834640   1.2486243  )
        37           Cu  tau(  37) = (   0.0000721   2.0771959   1.2475848  )
        38           Cu  tau(  38) = (   0.2500753   1.8454353   1.2480641  )
        39           Cu  tau(  39) = (   0.5000696   2.0772392   1.2474654  )
        40           Cu  tau(  40) = (   0.7500644   1.8454540   1.2480357  )
        41           Cu  tau(  41) = (   0.0000552  -0.0003437   1.4963069  )
        42           Cu  tau(  42) = (   0.2501594   0.2316922   1.4966729  )
        43           Cu  tau(  43) = (   0.5000801  -0.0003239   1.4961498  )
        44           Cu  tau(  44) = (   0.7499692   0.2317424   1.4967073  )
        45           Cu  tau(  45) = (   0.0000623   0.4634405   1.4974589  )
        46           Cu  tau(  46) = (   0.2501391   0.6941193   1.4986964  )
        47           Cu  tau(  47) = (   0.5000667   0.4635838   1.4978574  )
        48           Cu  tau(  48) = (   0.7499975   0.6940653   1.4985995  )
        49           Cu  tau(  49) = (   0.0000719   0.9236097   1.4991718  )
        50           Cu  tau(  50) = (   0.2500634   1.1527743   1.4992825  )
        51           Cu  tau(  51) = (   0.5000695   0.9235140   1.4993108  )
        52           Cu  tau(  52) = (   0.7500770   1.1527397   1.4993345  )
        53           Cu  tau(  53) = (   0.0000750   1.3828780   1.4988430  )
        54           Cu  tau(  54) = (   0.2500890   1.6138847   1.4980387  )
        55           Cu  tau(  55) = (   0.5000679   1.3824979   1.4990271  )
        56           Cu  tau(  56) = (   0.7500488   1.6139412   1.4979863  )
        57           Cu  tau(  57) = (   0.0000808   1.8455483   1.4970029  )
        58           Cu  tau(  58) = (   0.2499997   2.0773826   1.4963591  )
        59           Cu  tau(  59) = (   0.5000580   1.8459184   1.4969695  )
        60           Cu  tau(  60) = (   0.7501390   2.0773614   1.4963585  )
[...]
       134           C   tau( 134) = (   0.6665638   1.4459311   2.3883803  )
       135           C   tau( 135) = (   0.8334444   1.1567853   2.3980193  )
       136           C   tau( 136) = (   0.8334256   1.5416843   2.3850458  )
       137           C   tau( 137) = (   0.0000818   1.8305645   2.3801465  )
       138           C   tau( 138) = (   0.0000178   2.0230047   2.3827294  )
       139           C   tau( 139) = (   0.1669767   1.7342100   2.3821412  )
       140           C   tau( 140) = (   0.1666234   2.1191650   2.3827717  )
       141           C   tau( 141) = (   0.3334727   1.8304533   2.3834572  )
       142           C   tau( 142) = (   0.3334464   2.0228704   2.3818320  )
       143           C   tau( 143) = (   0.5000638   1.7343864   2.3850919  )
       144           C   tau( 144) = (   0.5000445   2.1189962   2.3815734  )
       145           C   tau( 145) = (   0.6666800   1.8303624   2.3835727  )
       146           C   tau( 146) = (   0.6666154   2.0227865   2.3818160  )
       147           C   tau( 147) = (   0.8332512   1.7341954   2.3822333  )
       148           C   tau( 148) = (   0.8333765   2.1191374   2.3825846  )
       149           C_h tau( 149) = (   0.4878592   0.9658295   2.6754889  )
       150           O   tau( 150) = (   0.3907150   1.0691884   2.7619711  )
       151           O   tau( 151) = (   0.5916853   0.8343731   2.7542978  )
       152           H   tau( 152) = (   0.5700785   0.8427763   2.8860689  )

     number of k points=     6  gaussian smearing, width (Ry)=  0.1000
                       cart. coord. in units 2pi/alat
        k(    1) = (   0.0000000   0.0000000   0.0000000), wk =   0.2500000
        k(    2) = (   0.0000000  -0.2165064   0.0000000), wk =   0.2500000
        k(    3) = (   0.2500000   0.0000000   0.0000000), wk =   0.5000000
        k(    4) = (   0.2500000  -0.2165064   0.0000000), wk =   0.5000000
        k(    5) = (  -0.5000000   0.0000000   0.0000000), wk =   0.2500000
        k(    6) = (  -0.5000000  -0.2165064   0.0000000), wk =   0.2500000

     Largest allocated arrays     est. size (Mb)     dimensions
     Largest temporary arrays     est. size (Mb)     dimensions

     Initial potential from superposition of free atoms
     Check: negative starting charge=   -0.001570

     starting charge 1283.31750, renormalised to 1309.00000

     negative rho (up, down):  1.602E-03 0.000E+00
     Starting wfc are 1301 randomized atomic wfcs

     Self-consistent Calculation

     iteration #  1     ecut=    80.00 Ry     beta=0.70
     Davidson diagonalization with overlap
     ethr =  1.00E-04,  avg # of iterations = 21.0

     negative rho (up, down):  2.429E+01 0.000E+00

     total energy              =   -9954.04062813 Ry
     Harris-Foulkes estimate   =  -17497.03827644 Ry
     estimated scf accuracy    <  185328.01441206 Ry

[...]

     iteration # 29     ecut=    80.00 Ry     beta=0.70
     Davidson diagonalization with overlap
     c_bands:  3 eigenvalues not converged
     ethr =  2.23E-06,  avg # of iterations = 15.0

[...]

     iteration # 36     ecut=    80.00 Ry     beta=0.70
     Davidson diagonalization with overlap
     c_bands:  1 eigenvalues not converged
     ethr =  2.51E-09,  avg # of iterations = 10.0

[...]

     total energy              =  -12783.19363459 Ry
     Harris-Foulkes estimate   =  -12783.19363457 Ry
     estimated scf accuracy    <       0.00000001 Ry

     iteration # 44     ecut=    80.00 Ry     beta=0.70
     Davidson diagonalization with overlap
     ethr =  8.59E-13,  avg # of iterations =  2.0

     negative rho (up, down):  1.873E-03 0.000E+00

     End of self-consistent calculation

          k = 0.0000 0.0000 0.0000 (256287 PWs)   bands (ev):

   -21.9849 -19.3823 -16.2238 -15.8727 -15.8334 -14.7852 -14.7269 -14.2973
   -14.2443 -13.9817 -13.8965 -13.8820 -13.8617 -13.0594 -12.9259 -12.8725
   -12.8242 -12.8096 -12.7985 -11.4180 -11.1269 -11.1143 -11.1137 -10.9566
   -10.2158  -9.8844  -9.2433  -9.2377  -9.2272  -9.1368  -8.4266  -8.3550
    -8.3513  -8.3248  -7.5802  -7.3704  -7.3381  -7.2997  -7.2817  -7.2767
    -7.2703  -7.2342  -6.5572  -5.8867  -5.8154  -5.7697  -5.7329  -5.6646
    -5.6354  -5.6051  -5.5618  -5.4803  -5.4142  -5.3544  -5.3488  -4.9948
    -4.9168  -4.4671  -4.4602  -4.4146  -4.3682  -4.2990  -4.0979  -4.0523
    -3.9719  -3.8625  -3.8564  -3.8196  -3.3289  -3.3010  -3.2803  -3.2745
    -3.2742  -3.2619  -3.2225  -3.1254  -3.1101  -3.0830  -3.0448  -3.0268
    -2.9862  -2.8773  -2.8764  -2.8757  -2.8716  -2.7707  -2.7615  -2.6808
    -2.6323  -2.6071  -2.5951  -2.5398  -2.4803  -2.4640  -2.4570  -2.4503
    -2.3946  -2.2333  -2.2265  -2.2222  -2.2138  -2.1459  -2.0984  -2.0615
    -2.0606  -2.0231  -2.0228  -2.0212  -2.0207  -1.9231  -1.8957  -1.8933
    -1.8930  -1.8898  -1.8887  -1.8858  -1.8280  -1.7583  -1.7120  -1.6656
    -1.6611  -1.6470  -1.6080  -1.6078  -1.6054  -1.5993  -1.5574  -1.5438
    -1.5395  -1.5294  -1.5240  -1.4698  -1.4609  -1.4346  -1.4343  -1.4324
    -1.4281  -1.3988  -1.3981  -1.3911  -1.3861  -1.3842  -1.3694  -1.3068
    -1.3047  -1.2869  -1.2525  -1.2364  -1.2329  -1.2235  -1.2133  -1.1701
    -1.1697  -1.1348  -1.1339  -1.1203  -1.0998  -1.0825  -1.0817  -1.0630
    -1.0597  -1.0381  -1.0340  -1.0100  -0.9708  -0.9629  -0.9605  -0.9358
    -0.9321  -0.9205  -0.9139  -0.9080  -0.8988  -0.8959  -0.8931  -0.8924
    -0.8908  -0.8905  -0.8865  -0.8838  -0.8705  -0.8696  -0.8230  -0.8226
    -0.8131  -0.7967  -0.7903  -0.7896  -0.7876  -0.7857  -0.7447  -0.7306
    -0.7283  -0.7273  -0.7268  -0.7264  -0.7259  -0.7243  -0.7204  -0.7196
    -0.7187  -0.7186  -0.7168  -0.7161  -0.7126  -0.7125  -0.6999  -0.6981
    -0.6727  -0.6538  -0.6416  -0.6059  -0.5611  -0.5607  -0.5543  -0.5537
    -0.5310  -0.5300  -0.5121  -0.5120  -0.4921  -0.4902  -0.4793  -0.4768
    -0.4710  -0.4704  -0.4598  -0.4417  -0.4365  -0.4356  -0.4316  -0.4307
    -0.4253  -0.4243  -0.4143  -0.4133  -0.3829  -0.3637  -0.3627  -0.3214
    -0.3100  -0.3097  -0.2991  -0.2984  -0.2968  -0.2931  -0.2822  -0.2806
    -0.2768  -0.2754  -0.2749  -0.2741  -0.2706  -0.2705  -0.2563  -0.2559
    -0.2482  -0.2467  -0.2376  -0.2216  -0.2207  -0.1967  -0.1715  -0.1706
    -0.1646  -0.1630  -0.1628  -0.1398  -0.1396  -0.1328  -0.1327  -0.1193
    -0.1181  -0.1136  -0.1131  -0.1128  -0.0949  -0.0943  -0.0914  -0.0887
    -0.0864  -0.0850  -0.0833  -0.0816  -0.0803  -0.0778  -0.0632  -0.0623
    -0.0609  -0.0583  -0.0579  -0.0378   0.0073   0.0090   0.0101   0.0110
     0.0113   0.0540   0.0563   0.0608   0.0616   0.0661   0.0669   0.0677
     0.0693   0.0696   0.0741   0.0885   0.1177   0.1185   0.1209   0.1221
     0.1284   0.1443   0.1456   0.1524   0.1532   0.1543   0.1611   0.1652
     0.1747   0.1748   0.1754   0.1757   0.1805   0.1859   0.1915   0.1917
     0.1928   0.1929   0.2011   0.2080   0.2108   0.2124   0.2315   0.2318
     0.2492   0.2623   0.2647   0.2695   0.2982   0.3000   0.3057   0.3163
     0.3246   0.3537   0.3584   0.3624   0.3647   0.3717   0.3773   0.3807
     0.4011   0.4012   0.4028   0.4032   0.4074   0.4111   0.4144   0.4183
     0.4589   0.4681   0.4689   0.4788   0.4810   0.4823   0.4827   0.5068
     0.5103   0.5112   0.5130   0.5140   0.5422   0.5472   0.5525   0.5596
     0.5600   0.5629   0.5675   0.5703   0.5730   0.5844   0.6103   0.6123
     0.6189   0.6224   0.6251   0.6321   0.6326   0.6386   0.6537   0.6548
     0.6578   0.6625   0.6629   0.6655   0.6668   0.6687   0.6739   0.6760
     0.6776   0.6845   0.6852   0.6881   0.6897   0.6935   0.6945   0.7276
     0.7331   0.7332   0.7390   0.7499   0.7770   0.7775   0.7789   0.7790
     0.7819   0.7824   0.7825   0.7848   0.7939   0.7963   0.8007   0.8073
     0.8077   0.8103   0.8123   0.8148   0.8151   0.8255   0.8278   0.8493
     0.8510   0.8517   0.8528   0.8592   0.8624   0.8699   0.8747   0.8755
     0.8758   0.8759   0.8834   0.8838   0.8858   0.8883   0.8969   0.9338
     0.9341   0.9372   0.9464   0.9469   0.9473   0.9498   0.9556   0.9565
     0.9608   0.9707   0.9848   0.9851   0.9997   1.0006   1.0038   1.0042
     1.0187   1.0192   1.0273   1.0284   1.0292   1.0294   1.0405   1.0496
     1.0655   1.0670   1.0684   1.0702   1.0706   1.0714   1.0906   1.0979
[...]
     4.1367   4.1375   4.1397   4.1402   4.1487   4.1489   4.1632   4.3848
     4.3877   4.3898   4.4093   4.5605   4.8243   4.8971   5.1234   5.1542
     5.1971   5.4283   5.5223   5.5594   5.5636   5.7109   5.8451   5.8527
     5.8709   5.8858   6.0641   6.0664   6.4811   6.4933   6.5370   6.5420
     6.6163   6.6182   6.6222   6.6284   6.7707   6.7769   6.7871   6.8355
     6.9362   6.9440   6.9576   6.9861   7.0121   7.0703   7.1809   7.1870
     7.2279   7.2320   7.2463   7.2515   7.4890   7.4918   7.6989   7.7005
     7.7260   7.8301   7.8345   7.8402   7.8533   7.9251   8.1441   8.2733
     8.3410   8.3508   8.3620   8.4467   8.4582   8.4667   8.4681   8.5129
     8.5464   8.5514   8.5739   8.6546   8.6983   8.7233   8.7555   8.7892
     8.7960   8.7992   8.8075   8.8292   8.8610   8.8808   8.9717   8.9726
     8.9779   8.9801   9.1257   9.2256   9.2489   9.2577   9.2609   9.2661
     9.2705   9.3020   9.4053   9.4753   9.4782   9.6025   9.6199   9.7093
     9.7114   9.7370   9.7388   9.8399   9.9227   9.9597  10.1719  10.1724
    10.2270  10.3073

[...]

          k = 0.2500-0.2165 0.0000 (256316 PWs)   bands (ev):

[...]

          k =-0.5000 0.0000 0.0000 (256496 PWs)   bands (ev):

[...]

          k =-0.5000-0.2165 0.0000 (256328 PWs)   bands (ev):

   -21.9849 -19.3824 -15.6805 -15.6392 -15.6335 -15.6001 -14.9654 -14.8926
   -14.8791 -14.8698 -13.5621 -13.4392 -13.4299 -13.4269 -12.1013 -11.8231
   -11.8219 -11.7829 -11.5809 -11.3687 -11.3656 -11.3601 -11.2589 -11.1925
   -11.1899 -11.1832 -10.1141  -9.5013  -9.4910  -9.4598  -9.3446  -8.6001
    -8.5308  -8.5114  -8.4886  -7.8507  -7.7654  -7.7591  -7.7327  -6.7554
    -5.7550  -5.7017  -5.6847  -5.5712  -5.5482  -5.3297  -5.0677  -5.0544
    -5.0527  -5.0514  -5.0476  -5.0418  -5.0299  -4.8812  -4.8389  -4.8376
    -4.7881  -4.6304  -4.1969  -4.1933  -4.1722  -4.0911  -4.0681  -4.0670
    -4.0657  -4.0463  -3.9634  -3.9587  -3.9460  -3.8815  -3.7243  -3.7156
    -3.7051  -3.5607  -3.4918  -3.4327  -3.4267  -3.4211  -3.4125  -3.4084
    -3.3957  -3.3456  -3.3001  -3.2414  -3.2325  -3.1892  -3.0634  -2.8909
    -2.8712  -2.8538  -2.5596  -2.4489  -2.4486  -2.4481  -2.4446  -2.3948
    -2.3847  -2.3844  -2.3386  -2.1218  -2.0896  -2.0767  -2.0699  -1.9642
    -1.9635  -1.9587  -1.9511  -1.8838  -1.8829  -1.8818  -1.8652  -1.8125
    -1.7946  -1.7709  -1.7483  -1.6751  -1.6742  -1.6718  -1.6692  -1.5643
    -1.5543  -1.5349  -1.4853  -1.3647  -1.3641  -1.3638  -1.3635  -1.3462
    -1.3383  -1.3350  -1.3254  -1.3236  -1.3229  -1.3213  -1.3052  -1.3047
    -1.3022  -1.3020  -1.2579  -1.2567  -1.2563  -1.2563  -1.2541  -1.2533
    -1.2475  -1.2442  -1.2294  -1.2293  -1.2291  -1.2286  -1.1877  -1.1808
    -1.1773  -1.1770  -1.1654  -1.1029  -1.1021  -1.1001  -1.0894  -1.0635
    -1.0632  -1.0605  -1.0602  -1.0424  -1.0421  -1.0411  -1.0403  -1.0149
    -0.9927  -0.9923  -0.9919  -0.9913  -0.9871  -0.9870  -0.9870  -0.9849
    -0.9586  -0.9533  -0.9510  -0.9336  -0.9333  -0.9224  -0.9207  -0.9163
    -0.9161  -0.9099  -0.9085  -0.9070  -0.9065  -0.9060  -0.9044  -0.8635
    -0.8159  -0.8023  -0.7722  -0.7562  -0.7557  -0.7517  -0.7503  -0.7314
    -0.7238  -0.7234  -0.7233  -0.7229  -0.6446  -0.6440  -0.6396  -0.6386
    -0.6333  -0.6329  -0.6324  -0.6322  -0.6311  -0.6283  -0.6218  -0.6103
    -0.5708  -0.5707  -0.5692  -0.5677  -0.5608  -0.5598  -0.5587  -0.5556
    -0.5439  -0.5436  -0.5323  -0.5288  -0.4485  -0.4484  -0.4429  -0.4417
    -0.4359  -0.4357  -0.4302  -0.4268  -0.3710  -0.3705  -0.3691  -0.3672
    -0.3208  -0.3200  -0.3199  -0.3193  -0.3013  -0.3012  -0.2979  -0.2975
    -0.2729  -0.2727  -0.2680  -0.2656  -0.2617  -0.2607  -0.2604  -0.2589
    -0.2177  -0.2174  -0.2167  -0.2114  -0.1486  -0.1484  -0.1422  -0.1417
    -0.1288  -0.1285  -0.1278  -0.1271  -0.1121  -0.1120  -0.1118  -0.1105
    -0.0420  -0.0306  -0.0286  -0.0283  -0.0259  -0.0248  -0.0230  -0.0226
    -0.0223  -0.0212  -0.0208  -0.0202   0.0098   0.0149   0.0151   0.0155
     0.0188   0.0275   0.0280   0.0284   0.0286   0.0326   0.0335   0.0344
     0.0353   0.1014   0.1023   0.1026   0.1051   0.1228   0.1245   0.1341
     0.1358   0.1730   0.1784   0.1811   0.1860   0.1963   0.1981   0.2066
     0.2067   0.2074   0.2082   0.2141   0.2146   0.2174   0.2192   0.2202
     0.2215   0.2232   0.2235   0.2283   0.2284   0.2291   0.2299   0.2335
     0.2338   0.2361   0.2367   0.2503   0.2510   0.2511   0.2516   0.2555
     0.2717   0.2779   0.2782   0.2788   0.2788   0.2898   0.2907   0.2908
     0.2942   0.3384   0.3386   0.3397   0.3397   0.3718   0.3726   0.3732
     0.3741   0.4453   0.4465   0.4519   0.4544   0.4581   0.4582   0.4664
     0.4698   0.4702   0.4710   0.4768   0.4782   0.4837   0.4855   0.4896
     0.4928   0.4940   0.4960   0.4983   0.5001   0.5022   0.5038   0.5044
     0.5118   0.5133   0.5170   0.5207   0.5335   0.5456   0.5625   0.5647
     0.5826   0.5831   0.5844   0.5857   0.5870   0.5891   0.5910   0.5941
     0.5968   0.5974   0.5997   0.6044   0.6276   0.6347   0.6373   0.6394
     0.6399   0.6426   0.6495   0.6498   0.6778   0.6791   0.6857   0.6868
     0.6938   0.6944   0.6972   0.6975   0.6998   0.7019   0.7029   0.7035
     0.7054   0.7062   0.7084   0.7121   0.7214   0.7223   0.7228   0.7252
     0.7267   0.7357   0.7394   0.7440   0.7991   0.8049   0.8061   0.8095
     0.8102   0.8120   0.8126   0.8146   0.8152   0.8216   0.8221   0.8226
     0.8363   0.8422   0.8475   0.8543   0.8556   0.8565   0.8571   0.8585
     0.8590   0.8601   0.8622   0.8651   0.9042   0.9118   0.9124   0.9139
     0.9384   0.9384   0.9412   0.9419   0.9654   0.9696   0.9737   0.9737
     0.9772   0.9783   0.9793   0.9895   1.0007   1.0013   1.0031   1.0042
     1.0523   1.0533   1.0540   1.0545   1.0844   1.0850   1.0886   1.0892
[...]
     4.4876   4.4881   4.6869   4.6931   4.6951   4.6962   4.7280   4.7286
     4.7596   4.7801   5.0379   5.0388   5.0705   5.1246   5.2085   5.2199
     5.2344   5.2961   5.2995   5.3136   5.3176   5.3944   5.4480   5.4702
     5.4815   5.4912   5.4946   5.4996   5.5188   5.6535   5.8715   5.8763
     5.8767   5.8773   5.8890   5.8989   5.9039   5.9684   6.0464   6.0539
     6.0559   6.7606   6.8807   6.8838   6.9473   6.9507   7.2319   7.2345
     7.2716   7.2739   7.2775   7.2831   7.2850   7.2897   7.3703   7.4194
     7.4250   7.4341   7.4617   7.4937   7.4957   7.4963   7.5095   7.7593
     7.7620   7.7706   7.7920   8.0803   8.1036   8.1209   8.1250   8.1720
     8.1912   8.2165   8.2777   8.3607   8.3720   8.3833   8.3916   8.4461
     8.5079   8.8553   8.9167   9.0143   9.0150   9.0227   9.0241   9.0409
     9.0534   9.0585   9.0859   9.0961   9.0971   9.0993   9.1014   9.1475
     9.1555   9.2010   9.2037   9.2551   9.3642   9.4588   9.5629   9.6505
     9.6689   9.6946   9.6995   9.7141   9.7177   9.7225   9.8131   9.8710
     9.9954  10.0292

     the Fermi energy is     3.4480 ev

!    total energy              =  -12783.19363467 Ry
     Harris-Foulkes estimate   =  -12783.19363460 Ry
     estimated scf accuracy    <          7.7E-09 Ry

     The total energy is the sum of the following terms:

     one-electron contribution = -107352.09120471 Ry
     hartree contribution      =   55051.81278879 Ry
     xc contribution           =   -4465.85089731 Ry
     ewald contribution        =   43989.34552520 Ry
     Dispersion Correction     =      -3.01374636 Ry
     smearing contrib. (-TS)   =      -3.39610028 Ry

     convergence has been achieved in  44 iterations

     Writing output data file gc.save

     General routines

     Parallel routines

   This run was terminated on:  14: 5:15  12May2017

   JOB DONE.