     Program PWSCF v.5.4.0 starts on 26Mar2017 at 15:23:54

     Current dimensions of program PWSCF are:
     Max number of different atomic species (ntypx) = 10
     Max number of k-points (npk) =  40000
     Max angular momentum in pseudopotentials (lmaxx) =  3

     Parameters for Dispersion Correction:
       atom      VdW radius       C_6

        Cu         2.952        374.666
        C_h        2.744         60.710
        C          2.744         60.710

     bravais-lattice index     =            0
     lattice parameter (alat)  =      13.9425  a.u.
     unit-cell volume          =   21209.0878 (a.u.)^3
     number of atoms/cell      =          148
     number of atomic types    =            3
     number of electrons       =      1292.00
     number of Kohn-Sham states=          775
     kinetic-energy cutoff     =      80.0000  Ry
     charge density cutoff     =     320.0000  Ry
     convergence threshold     =      1.0E-08
     mixing beta               =       0.7000
     number of iterations used =            8  local-TF  mixing
     Exchange-correlation      =  SLA  PW   PBX  PBC ( 1  4  3  4 0 0)

     celldm(1)=  13.942539  celldm(2)=   0.000000  celldm(3)=   0.000000
     celldm(4)=   0.000000  celldm(5)=   0.000000  celldm(6)=   0.000000

     crystal axes: (cart. coord. in units of alat)
               a(1) = (   1.000000   0.000000   0.000000 )
               a(2) = (   0.000000   2.309401   0.000000 )
               a(3) = (   0.000000   0.000000   3.388418 )

     reciprocal axes: (cart. coord. in units 2 pi/alat)
               b(1) = (  1.000000  0.000000  0.000000 )
               b(2) = (  0.000000  0.433013  0.000000 )
               b(3) = (  0.000000  0.000000  0.295123 )

     PseudoPot. # 1 for Cu read from file:
     /home/549/hxw549/Short/pseudopotentials/Cu.pbe-n-van_ak.UPF
     MD5 check sum: 601f7c30f7467666bec936e0661ce3e1
     Pseudo is Ultrasoft + core correction, Zval = 11.0
     Generated by new atomic code, or converted to UPF format
     Using radial grid of  867 points,  6 beta functions with:
                l(1) =   0
                l(2) =   0
                l(3) =   1
                l(4) =   1
                l(5) =   2
                l(6) =   2
     Q(r) pseudized with  8 coefficients,  rinner =    1.400   1.400   1.400
                                                       1.400   1.400

     PseudoPot. # 2 for C  read from file:
     /home/549/hxw549/Short/pseudopotentials/C.star1s-pbe-mt_gipaw.UPF
     MD5 check sum: ef0cb3dee31bd9e4ba2a832a2c716264
     Pseudo is Norm-conserving, Zval =  5.0
     Generated by new atomic code, or converted to UPF format
     Using radial grid of 1073 points,  1 beta functions with:
                l(1) =   0

     PseudoPot. # 3 for C  read from file:
     /home/549/hxw549/Short/pseudopotentials/C.pbe-mt_gipaw.UPF
     MD5 check sum: 5ac2f21f2c440b14befe521540822c15
     Pseudo is Norm-conserving, Zval =  4.0
     Generated by new atomic code, or converted to UPF format
     Using radial grid of 1073 points,  1 beta functions with:
                l(1) =   0

     atomic species   valence    mass     pseudopotential
        Cu            11.00    63.54600     Cu( 1.00)
        C_h            5.00    12.01070     C ( 1.00)
        C              4.00    12.01070     C ( 1.00)

     No symmetry found

   Cartesian axes

     site n.     atom                  positions (alat units)
         1           Cu  tau(   1) = (   0.0000000   0.0000567   0.9971194  )
         2           Cu  tau(   2) = (   0.2499927   0.2309760   0.9972946  )
         3           Cu  tau(   3) = (   0.5000000   0.0000313   0.9971490  )
         4           Cu  tau(   4) = (   0.7500073   0.2309760   0.9972946  )
         5           Cu  tau(   5) = (   0.0000000   0.4618437   0.9973425  )
         6           Cu  tau(   6) = (   0.2499840   0.6927701   0.9971914  )
         7           Cu  tau(   7) = (   0.5000000   0.4618722   0.9973119  )
         8           Cu  tau(   8) = (   0.7500160   0.6927701   0.9971914  )
         9           Cu  tau(   9) = (   0.0000000   0.9237521   0.9970621  )
        10           Cu  tau(  10) = (   0.2500157   1.1547420   0.9971373  )
        11           Cu  tau(  11) = (   0.5000000   0.9237453   0.9970727  )
        12           Cu  tau(  12) = (   0.7499843   1.1547420   0.9971373  )
        13           Cu  tau(  13) = (   0.0000000   1.3856555   0.9972830  )
        14           Cu  tau(  14) = (   0.2500029   1.6165618   0.9973242  )
        15           Cu  tau(  15) = (   0.5000000   1.3857014   0.9973005  )
        16           Cu  tau(  16) = (   0.7499971   1.6165618   0.9973242  )
        17           Cu  tau(  17) = (   0.0000000   1.8474941   0.9971969  )
        18           Cu  tau(  18) = (   0.2500043   2.0784518   0.9970745  )
        19           Cu  tau(  19) = (   0.5000000   1.8474499   0.9971773  )
        20           Cu  tau(  20) = (   0.7499957   2.0784518   0.9970745  )
        21           Cu  tau(  21) = (   0.0000000   0.2308065   1.2457643  )
        22           Cu  tau(  22) = (   0.2499892  -0.0001010   1.2455764  )
        23           Cu  tau(  23) = (   0.5000000   0.2308938   1.2456746  )
        24           Cu  tau(  24) = (   0.7500108  -0.0001010   1.2455764  )
        25           Cu  tau(  25) = (   0.0000000   0.6929786   1.2456406  )
        26           Cu  tau(  26) = (   0.2499874   0.4619293   1.2457459  )
        27           Cu  tau(  27) = (   0.5000000   0.6929012   1.2456074  )
        28           Cu  tau(  28) = (   0.7500126   0.4619293   1.2457459  )
        29           Cu  tau(  29) = (   0.0000000   1.1546142   1.2455676  )
        30           Cu  tau(  30) = (   0.2499981   0.9237849   1.2455149  )
        31           Cu  tau(  31) = (   0.5000000   1.1545763   1.2455800  )
        32           Cu  tau(  32) = (   0.7500019   0.9237849   1.2455149  )
        33           Cu  tau(  33) = (   0.0000000   1.6166029   1.2456910  )
        34           Cu  tau(  34) = (   0.2500161   1.3855492   1.2457134  )
        35           Cu  tau(  35) = (   0.5000000   1.6166555   1.2458019  )
        36           Cu  tau(  36) = (   0.7499839   1.3855492   1.2457134  )
        37           Cu  tau(  37) = (   0.0000000   2.0784993   1.2455162  )
        38           Cu  tau(  38) = (   0.2500161   1.8476387   1.2456210  )
        39           Cu  tau(  39) = (   0.5000000   2.0784755   1.2455152  )
        40           Cu  tau(  40) = (   0.7499839   1.8476387   1.2456210  )
        41           Cu  tau(  41) = (   0.0000000  -0.0003182   1.4954305  )
        42           Cu  tau(  42) = (   0.2500224   0.2307186   1.4951678  )
        43           Cu  tau(  43) = (   0.5000000  -0.0002059   1.4952775  )
        44           Cu  tau(  44) = (   0.7499776   0.2307186   1.4951678  )
        45           Cu  tau(  45) = (   0.0000000   0.4620254   1.4950571  )
        46           Cu  tau(  46) = (   0.2500339   0.6931225   1.4952807  )
        47           Cu  tau(  47) = (   0.5000000   0.4619896   1.4952144  )
        48           Cu  tau(  48) = (   0.7499661   0.6931225   1.4952807  )
        49           Cu  tau(  49) = (   0.0000000   0.9238798   1.4954544  )
        50           Cu  tau(  50) = (   0.2499708   1.1544329   1.4953374  )
        51           Cu  tau(  51) = (   0.5000000   0.9237633   1.4954072  )
        52           Cu  tau(  52) = (   0.7500292   1.1544329   1.4953374  )
        53           Cu  tau(  53) = (   0.0000000   1.3854453   1.4952066  )
        54           Cu  tau(  54) = (   0.2499861   1.6167017   1.4951298  )
        55           Cu  tau(  55) = (   0.5000000   1.3853760   1.4951346  )
        56           Cu  tau(  56) = (   0.7500139   1.6167017   1.4951298  )
        57           Cu  tau(  57) = (   0.0000000   1.8477718   1.4952308  )
        58           Cu  tau(  58) = (   0.2499930   2.0785254   1.4954090  )
        59           Cu  tau(  59) = (   0.5000000   1.8478762   1.4953503  )
        60           Cu  tau(  60) = (   0.7500070   2.0785254   1.4954090  )
[...]
       119           C   tau( 119) = (   0.5000000   0.5773685   2.3848465  )
       120           C   tau( 120) = (   0.5000000   0.9623380   2.3860825  )
       121           C   tau( 121) = (   0.6667906   0.6735984   2.3858047  )
       122           C   tau( 122) = (   0.6667969   0.8660537   2.3866148  )
       123           C   tau( 123) = (   0.8335241   0.5773226   2.3882842  )
       124           C   tau( 124) = (   0.8332572   0.9622141   2.3870264  )
       125           C   tau( 125) = (   0.0000000   1.2508867   2.3852683  )
       126           C   tau( 126) = (   0.0000000   1.4433300   2.3840871  )
       127           C   tau( 127) = (   0.1667360   1.1546708   2.3859697  )
       128           C   tau( 128) = (   0.1668939   1.5396104   2.3857176  )
       129           C   tau( 129) = (   0.3335095   1.2509657   2.3878953  )
       130           C   tau( 130) = (   0.3334866   1.4433958   2.3886602  )
       131           C   tau( 131) = (   0.5000000   1.1547731   2.3885512  )
       132           C   tau( 132) = (   0.5000000   1.5396099   2.3901428  )
       133           C   tau( 133) = (   0.6664905   1.2509657   2.3878953  )
       134           C_h tau( 134) = (   0.6665134   1.4433958   2.3886602  )
       135           C   tau( 135) = (   0.8332640   1.1546708   2.3859697  )
       136           C   tau( 136) = (   0.8331061   1.5396104   2.3857176  )
       137           C   tau( 137) = (   0.0000000   1.8283510   2.3842019  )
       138           C   tau( 138) = (   0.0000000   2.0207949   2.3863399  )
       139           C   tau( 139) = (   0.1668959   1.7320513   2.3858703  )
       140           C   tau( 140) = (   0.1666186   2.1169980   2.3865340  )
       141           C   tau( 141) = (   0.3334155   1.8282368   2.3882160  )
       142           C   tau( 142) = (   0.3334352   2.0206763   2.3869561  )
       143           C   tau( 143) = (   0.5000000   1.7319961   2.3895398  )
       144           C   tau( 144) = (   0.5000000   2.1168754   2.3870198  )
       145           C   tau( 145) = (   0.6665845   1.8282368   2.3882160  )
       146           C   tau( 146) = (   0.6665648   2.0206763   2.3869561  )
       147           C   tau( 147) = (   0.8331041   1.7320513   2.3858703  )
       148           C   tau( 148) = (   0.8333814   2.1169980   2.3865340  )

     number of k points=     6  gaussian smearing, width (Ry)=  0.1000
                       cart. coord. in units 2pi/alat
        k(    1) = (   0.0000000   0.0000000   0.0000000), wk =   0.2500000
        k(    2) = (   0.0000000  -0.2165064   0.0000000), wk =   0.2500000
        k(    3) = (   0.2500000   0.0000000   0.0000000), wk =   0.5000000
        k(    4) = (   0.2500000  -0.2165064   0.0000000), wk =   0.5000000
        k(    5) = (  -0.5000000   0.0000000   0.0000000), wk =   0.2500000
        k(    6) = (  -0.5000000  -0.2165064   0.0000000), wk =   0.2500000

     Largest allocated arrays     est. size (Mb)     dimensions
     Largest temporary arrays     est. size (Mb)     dimensions

     Initial potential from superposition of free atoms
     Check: negative starting charge=   -0.001843

     starting charge 1266.81751, renormalised to 1292.00000

     negative rho (up, down):  1.879E-03 0.000E+00
     Starting wfc are 1284 randomized atomic wfcs

     Self-consistent Calculation

     iteration #  1     ecut=    80.00 Ry     beta=0.70
     Davidson diagonalization with overlap
     c_bands:  2 eigenvalues not converged
     c_bands:  1 eigenvalues not converged
     c_bands:  3 eigenvalues not converged
     ethr =  1.00E-04,  avg # of iterations = 36.0

     negative rho (up, down):  2.727E+01 0.000E+00

     total energy              =   -9468.07321887 Ry
     Harris-Foulkes estimate   =  -17311.26688741 Ry
     estimated scf accuracy    <  180193.31598899 Ry

     iteration #  2     ecut=    80.00 Ry     beta=0.70
     Davidson diagonalization with overlap
     ethr =  1.00E-02,  avg # of iterations = 12.2

[...]

     iteration # 40     ecut=    80.00 Ry     beta=0.70
     Davidson diagonalization with overlap
     c_bands:  1 eigenvalues not converged
     c_bands:  1 eigenvalues not converged
     ethr =  4.63E-09,  avg # of iterations = 10.8

[...]

     total energy              =  -12707.14610182 Ry
     Harris-Foulkes estimate   =  -12707.14610186 Ry
     estimated scf accuracy    <       0.00000002 Ry

     iteration # 47     ecut=    80.00 Ry     beta=0.70
     Davidson diagonalization with overlap
     ethr =  1.41E-12,  avg # of iterations =  3.0

     negative rho (up, down):  2.115E-03 0.000E+00

     End of self-consistent calculation

          k = 0.0000 0.0000 0.0000 (256287 PWs)   bands (ev):

   -17.2812 -16.2337 -16.0889 -15.4309 -15.0444 -14.7935 -14.6906 -14.2538
   -14.1969 -14.1414 -14.1245 -13.4649 -13.3258 -13.1563 -13.1232 -13.0852
   -13.0832 -11.6725 -11.5333 -11.4844 -11.3900 -11.2068 -10.3540  -9.7716
    -9.7619  -9.6274  -9.5234  -8.9885  -8.7998  -8.6719  -8.6029  -8.0496
    -7.9031  -7.7637  -7.6339  -7.5823  -7.5740  -7.5400  -7.5254  -6.3578
    -6.3507  -6.1253  -6.0237  -6.0207  -5.9498  -5.8913  -5.8600  -5.8436
    -5.4985  -5.4825  -5.2975  -4.8879  -4.8424  -4.7980  -4.6374  -4.6210
    -4.5830  -4.4261  -4.2577  -4.1465  -3.9889  -3.9873  -3.9705  -3.9521
    -3.6187  -3.5507  -3.5300  -3.5204  -3.4215  -3.4185  -3.4063  -3.3997
    -3.2769  -3.1877  -3.1225  -3.0605  -3.0161  -3.0088  -3.0048  -3.0047
    -2.9931  -2.8582  -2.8358  -2.8008  -2.7818  -2.7431  -2.7401  -2.7391
    -2.7191  -2.7133  -2.5328  -2.4323  -2.3769  -2.3765  -2.3393  -2.3359
    -2.1938  -2.1917  -2.1814  -2.1784  -2.1516  -2.1514  -2.1513  -2.1512
    -2.1121  -2.0793  -2.0786  -2.0364  -2.0206  -2.0205  -2.0205  -2.0202
    -1.9603  -1.8413  -1.7765  -1.7406  -1.7387  -1.7375  -1.7374  -1.7017
    -1.6925  -1.6711  -1.6581  -1.6563  -1.6125  -1.5951  -1.5905  -1.5711
    -1.5645  -1.5635  -1.5615  -1.5511  -1.5399  -1.5337  -1.5337  -1.5151
    -1.5135  -1.4521  -1.4404  -1.4238  -1.4156  -1.3864  -1.3817  -1.3788
    -1.3699  -1.3524  -1.2987  -1.2962  -1.2632  -1.2618  -1.2489  -1.2112
    -1.2108  -1.1914  -1.1892  -1.1778  -1.1666  -1.1636  -1.1298  -1.1204
    -1.1096  -1.1074  -1.0484  -1.0478  -1.0340  -1.0290  -1.0259  -1.0247
    -1.0245  -1.0215  -1.0201  -1.0153  -1.0150  -0.9980  -0.9970  -0.9796
    -0.9512  -0.9412  -0.9390  -0.9340  -0.9229  -0.9181  -0.9175  -0.9166
    -0.9004  -0.8591  -0.8578  -0.8567  -0.8555  -0.8550  -0.8542  -0.8532
    -0.8526  -0.8521  -0.8514  -0.8477  -0.8477  -0.8475  -0.8451  -0.8422
    -0.8416  -0.8308  -0.8293  -0.8256  -0.8225  -0.7852  -0.6892  -0.6892
    -0.6873  -0.6830  -0.6825  -0.6596  -0.6581  -0.6410  -0.6409  -0.6191
    -0.6191  -0.6040  -0.6036  -0.6031  -0.6027  -0.5872  -0.5638  -0.5634
    -0.5614  -0.5608  -0.5533  -0.5524  -0.5418  -0.5413  -0.4917  -0.4915
    -0.4377  -0.4374  -0.4272  -0.4256  -0.4254  -0.4238  -0.4101  -0.4099
    -0.4044  -0.4042  -0.4039  -0.4036  -0.3994  -0.3993  -0.3846  -0.3846
    -0.3800  -0.3776  -0.3748  -0.3744  -0.3506  -0.3499  -0.2998  -0.2970
    -0.2963  -0.2906  -0.2904  -0.2640  -0.2639  -0.2639  -0.2639  -0.2493
    -0.2467  -0.2462  -0.2420  -0.2419  -0.2214  -0.2205  -0.2200  -0.2195
    -0.2145  -0.2141  -0.2137  -0.2135  -0.2113  -0.2080  -0.1928  -0.1896
    -0.1889  -0.1876  -0.1869  -0.1675  -0.1200  -0.1196  -0.1179  -0.1174
    -0.1149  -0.0738  -0.0698  -0.0693  -0.0677  -0.0677  -0.0619  -0.0615
    -0.0613  -0.0612  -0.0611  -0.0531  -0.0475  -0.0346  -0.0099  -0.0088
    -0.0076  -0.0073   0.0015   0.0176   0.0214   0.0219   0.0222   0.0273
     0.0305   0.0461   0.0465   0.0478   0.0484   0.0502   0.0502   0.0637
     0.0641   0.0642   0.0645   0.0693   0.0769   0.0777   0.0789   0.1013
     0.1023   0.1348   0.1357   0.1450   0.1546   0.1650   0.1652   0.1904
     0.1931   0.2304   0.2384   0.2389   0.2392   0.2402   0.2437   0.2458
     0.2706   0.2737   0.2741   0.2745   0.2746   0.2847   0.2849   0.2958
     0.3268   0.3412   0.3413   0.3450   0.3500   0.3505   0.3510   0.3780
     0.3826   0.3843   0.3845   0.3850   0.3973   0.4128   0.4155   0.4231
     0.4235   0.4378   0.4389   0.4394   0.4406   0.4783   0.4795   0.4954
     0.4959   0.4971   0.4974   0.4976   0.5095   0.5243   0.5287   0.5329
     0.5344   0.5356   0.5360   0.5362   0.5379   0.5400   0.5475   0.5478
     0.5499   0.5541   0.5545   0.5552   0.5639   0.5646   0.5962   0.5986
     0.6062   0.6070   0.6167   0.6170   0.6490   0.6495   0.6501   0.6515
     0.6531   0.6535   0.6536   0.6539   0.6654   0.6664   0.6744   0.6778
     0.6786   0.6796   0.6798   0.6875   0.6880   0.6901   0.6979   0.6992
     0.7205   0.7208   0.7210   0.7223   0.7315   0.7330   0.7431   0.7466
     0.7481   0.7483   0.7490   0.7490   0.7559   0.7580   0.7599   0.7628
     0.7688   0.7732   0.8064   0.8064   0.8169   0.8178   0.8242   0.8245
     0.8251   0.8256   0.8561   0.8568   0.8700   0.8714   0.8766   0.8767
     0.8913   0.8914   0.9002   0.9011   0.9011   0.9027   0.9095   0.9226
     0.9362   0.9387   0.9399   0.9426   0.9433   0.9439   0.9587   0.9598
     0.9689   0.9782   0.9862   0.9865   0.9975   1.0052   1.0068   1.0109
[...]
     3.8523   3.8544   3.8559   3.8952   3.9672   3.9736   3.9924   4.0001
     4.0077   4.0088   4.0101   4.0129   4.0157   4.2381   4.2473   4.2523
     4.2536   4.3828   4.4095   4.6289   4.7657   4.8551   4.8721   4.9214
     5.3051   5.3897   5.3976   5.4080   5.7034   5.7107   5.7222   5.7264
     5.9185   5.9319   6.2419   6.3446   6.3506   6.3863   6.4133   6.4702
     6.4780   6.4804   6.4848   6.5808   6.5987   6.6108   6.6905   6.7718
     6.7791   6.7924   6.7986   6.8424   7.0089   7.0344   7.0534   7.0679
     7.0689   7.0929   7.3549   7.3604   7.5109   7.5474   7.5498   7.6958
     7.6961   7.7104   7.7116   8.0030   8.0391   8.1141   8.1480   8.1933
     8.2115   8.2997   8.3054   8.3064   8.3357   8.3384   8.3683   8.3720
     8.3824   8.4632   8.5079   8.5378   8.5650   8.5727   8.6648   8.6655
     8.6691   8.6708   8.8142   8.8157   8.8312   8.8327   8.8394   8.8399
     9.1089   9.1094   9.1115   9.1160   9.1200   9.1411   9.1737   9.3198
     9.3470   9.3499   9.4194   9.4804   9.4901   9.5778   9.5789   9.6617
     9.6702   9.8277   9.8315  10.0429  10.0443  10.1239  10.1455

[...]

          k = 0.2500-0.2165 0.0000 (256316 PWs)   bands (ev):

[...]

          k =-0.5000 0.0000 0.0000 (256496 PWs)   bands (ev):

[...]

          k =-0.5000-0.2165 0.0000 (256328 PWs)   bands (ev):

   -17.1681 -15.9799 -15.8213 -15.7943 -15.3904 -15.2206 -15.1506 -15.1147
   -14.0583 -13.8417 -13.7093 -13.6735 -12.6825 -12.4601 -12.0031 -11.9969
   -11.9221 -11.7753 -11.6737 -11.5884 -11.5428 -11.5374 -11.4232 -11.4048
   -10.0449 -10.0384  -9.7697  -9.7242  -9.2274  -8.9152  -8.8009  -8.7575
    -8.2709  -8.2327  -8.0221  -8.0000  -6.5341  -6.3449  -6.1248  -5.9499
    -5.8385  -5.6285  -5.3888  -5.3145  -5.3053  -5.2235  -5.2117  -5.1815
    -5.1794  -5.1789  -5.0225  -5.0015  -4.9423  -4.5130  -4.3927  -4.3525
    -4.3310  -4.3155  -4.2648  -4.2147  -4.2008  -4.1982  -4.1972  -4.1971
    -4.0826  -4.0765  -3.9161  -3.8781  -3.8657  -3.8570  -3.7547  -3.7478
    -3.7044  -3.6917  -3.6021  -3.5922  -3.5872  -3.4873  -3.4659  -3.4561
    -3.1730  -3.0870  -3.0721  -3.0618  -2.6361  -2.5842  -2.5801  -2.5787
    -2.5785  -2.5782  -2.5447  -2.5282  -2.5235  -2.5227  -2.4096  -2.3539
    -2.1600  -2.1569  -2.1102  -2.1005  -2.0964  -2.0952  -2.0547  -2.0495
    -2.0202  -2.0183  -2.0163  -2.0132  -1.9348  -1.8030  -1.8025  -1.8017
    -1.8013  -1.7727  -1.7387  -1.7280  -1.5694  -1.5237  -1.5089  -1.5019
    -1.4931  -1.4931  -1.4930  -1.4930  -1.4586  -1.4559  -1.4534  -1.4532
    -1.4334  -1.4331  -1.4330  -1.4328  -1.3839  -1.3837  -1.3836  -1.3834
    -1.3819  -1.3817  -1.3814  -1.3812  -1.3582  -1.3582  -1.3581  -1.3580
    -1.3085  -1.3082  -1.3072  -1.3068  -1.3025  -1.2372  -1.2332  -1.2326
    -1.2319  -1.1906  -1.1906  -1.1905  -1.1904  -1.1723  -1.1710  -1.1707
    -1.1703  -1.1282  -1.1217  -1.1214  -1.1213  -1.1165  -1.1154  -1.1154
    -1.1153  -1.1133  -1.0958  -1.0942  -1.0919  -1.0902  -1.0569  -1.0568
    -1.0564  -1.0563  -1.0401  -1.0399  -1.0398  -1.0396  -1.0369  -1.0366
    -1.0365  -1.0362  -1.0341  -1.0152  -0.8827  -0.8820  -0.8816  -0.8814
    -0.8533  -0.8525  -0.8523  -0.8522  -0.8046  -0.7706  -0.7698  -0.7694
    -0.7690  -0.7687  -0.7674  -0.7669  -0.7622  -0.7619  -0.7610  -0.7609
    -0.7058  -0.7001  -0.6999  -0.6995  -0.6919  -0.6889  -0.6885  -0.6873
    -0.6743  -0.6672  -0.6669  -0.6666  -0.6454  -0.5810  -0.5728  -0.5716
    -0.5678  -0.5668  -0.5659  -0.5658  -0.5022  -0.4980  -0.4976  -0.4975
    -0.4892  -0.4491  -0.4485  -0.4482  -0.4464  -0.4279  -0.4275  -0.4273
    -0.4270  -0.4090  -0.4002  -0.3993  -0.3889  -0.3888  -0.3880  -0.3880
    -0.3761  -0.3514  -0.3477  -0.3473  -0.3107  -0.2734  -0.2732  -0.2728
    -0.2726  -0.2573  -0.2572  -0.2566  -0.2566  -0.2409  -0.2401  -0.2398
    -0.2365  -0.1597  -0.1586  -0.1581  -0.1573  -0.1530  -0.1529  -0.1527
    -0.1525  -0.1509  -0.1493  -0.1491  -0.1473  -0.1123  -0.1123  -0.1122
    -0.1121  -0.1007  -0.0997  -0.0990  -0.0986  -0.0961  -0.0955  -0.0954
    -0.0952  -0.0670  -0.0265  -0.0262  -0.0255  -0.0251  -0.0016   0.0001
     0.0022   0.0034   0.0477   0.0507   0.0531   0.0567   0.0598   0.0669
     0.0796   0.0801   0.0804   0.0808   0.0839   0.0871   0.0879   0.0886
     0.0896   0.0904   0.0932   0.0940   0.1006   0.1007   0.1012   0.1015
     0.1066   0.1067   0.1068   0.1069   0.1217   0.1230   0.1235   0.1235
     0.1476   0.1513   0.1514   0.1515   0.1517   0.1602   0.1614   0.1619
     0.1649   0.2095   0.2108   0.2112   0.2115   0.2226   0.2418   0.2440
     0.2444   0.2492   0.2632   0.2935   0.3071   0.3213   0.3255   0.3275
     0.3287   0.3291   0.3337   0.3421   0.3446   0.3454   0.3465   0.3513
     0.3611   0.3614   0.3615   0.3618   0.3628   0.3658   0.3669   0.3679
     0.3698   0.3703   0.3729   0.3766   0.3788   0.3811   0.4012   0.4025
     0.4431   0.4467   0.4520   0.4524   0.4572   0.4577   0.4581   0.4589
     0.4691   0.4695   0.4697   0.4699   0.5060   0.5078   0.5090   0.5092
     0.5098   0.5100   0.5107   0.5109   0.5382   0.5540   0.5544   0.5547
     0.5549   0.5603   0.5665   0.5674   0.5682   0.5683   0.5688   0.5708
     0.5762   0.5764   0.5768   0.5770   0.5908   0.5910   0.5916   0.5920
     0.6036   0.6046   0.6065   0.6086   0.6578   0.6762   0.6779   0.6785
     0.6796   0.6830   0.6833   0.6835   0.6837   0.6847   0.6906   0.6915
     0.6948   0.6974   0.7064   0.7116   0.7286   0.7288   0.7291   0.7296
     0.7307   0.7311   0.7319   0.7321   0.7758   0.7812   0.7824   0.7829
     0.7937   0.8016   0.8119   0.8120   0.8135   0.8139   0.8292   0.8300
     0.8478   0.8482   0.8485   0.8487   0.8689   0.8717   0.8725   0.8740
     0.9256   0.9256   0.9262   0.9263   0.9585   0.9588   0.9598   0.9599
     0.9985   1.0112   1.0123   1.0127   1.0138   1.0177   1.0254   1.0281
[...]
     4.0036   4.2237   4.2252   4.2265   4.2360   4.3178   4.3309   4.3329
     4.3392   4.5102   4.5518   4.5557   4.5606   4.5610   4.5924   4.5945
     4.6817   4.7865   4.8242   4.8841   4.9018   4.9998   5.0246   5.0766
     5.1513   5.1652   5.1693   5.1736   5.2084   5.2512   5.2818   5.3015
     5.3321   5.3361   5.3423   5.3483   5.5232   5.5934   5.7265   5.7329
     5.7457   5.7464   5.7476   5.7490   5.8622   5.8713   5.8795   5.8826
     6.7751   6.7830   6.7839   6.7843   7.1003   7.1139   7.1192   7.1223
     7.1475   7.1498   7.1530   7.1538   7.2582   7.2659   7.2708   7.2731
     7.3613   7.3659   7.3667   7.3669   7.5248   7.6019   7.6066   7.6113
     7.6682   7.9027   7.9519   7.9602   7.9796   7.9810   7.9890   8.0048
     8.2292   8.2357   8.2398   8.2412   8.2468   8.2805   8.3576   8.3662
     8.8861   8.8898   8.8907   8.8916   8.9214   8.9221   8.9241   8.9249
     8.9624   8.9642   8.9654   8.9656   9.1062   9.1100   9.1184   9.1189
     9.3062   9.3240   9.3377   9.3435   9.5148   9.5307   9.5394   9.5504
     9.5635   9.5644   9.5722   9.5733   9.9265   9.9363   9.9654

     the Fermi energy is     3.3211 ev

!    total energy              =  -12707.14610180 Ry
     Harris-Foulkes estimate   =  -12707.14610182 Ry
     estimated scf accuracy    <          7.4E-09 Ry

     The total energy is the sum of the following terms:

     one-electron contribution = -109278.34892879 Ry
     hartree contribution      =   56000.58872971 Ry
     xc contribution           =   -4447.77100606 Ry
     ewald contribution        =   45024.72742867 Ry
     Dispersion Correction     =      -2.98700982 Ry
     smearing contrib. (-TS)   =      -3.35531551 Ry

     convergence has been achieved in  47 iterations

     Writing output data file gc.save

     General routines

     Parallel routines

   This run was terminated on:  19: 9:25  26Mar2017

   JOB DONE.