     Program PWSCF v.5.4.0 starts on 22Sep2017 at  3:30:42

     Current dimensions of program PWSCF are:
     Max number of different atomic species (ntypx) = 10
     Max number of k-points (npk) =  40000
     Max angular momentum in pseudopotentials (lmaxx) =  3
     WARNING: atomic wfc #  2 for atom type 4 has zero norm
     WARNING: atomic wfc #  4 for atom type 4 has zero norm
     WARNING: atomic wfc #  5 for atom type 4 has zero norm

     Parameters for Dispersion Correction:
       atom      VdW radius       C_6

        Cu         2.952        374.666
        C_h        2.744         60.710
        C          2.744         60.710
        O          2.536         24.284
        H          1.892          4.857

     bravais-lattice index     =            0
     lattice parameter (alat)  =      13.9425  a.u.
     unit-cell volume          =   21209.0878 (a.u.)^3
     number of atoms/cell      =          139
     number of atomic types    =            5
     number of electrons       =      1242.00
     number of Kohn-Sham states=          745
     kinetic-energy cutoff     =      80.0000  Ry
     charge density cutoff     =     320.0000  Ry
     convergence threshold     =      1.0E-08
     mixing beta               =       0.7000
     number of iterations used =            8  local-TF  mixing
     Exchange-correlation      =  SLA  PW   PBE  PBE ( 1  4  3  4 0 0)

     celldm(1)=  13.942539  celldm(2)=   0.000000  celldm(3)=   0.000000
     celldm(4)=   0.000000  celldm(5)=   0.000000  celldm(6)=   0.000000

     crystal axes: (cart. coord. in units of alat)
               a(1) = (   1.000000   0.000000   0.000000 )
               a(2) = (   0.000000   2.309401   0.000000 )
               a(3) = (   0.000000   0.000000   3.388418 )

     reciprocal axes: (cart. coord. in units 2 pi/alat)
               b(1) = (  1.000000  0.000000  0.000000 )
               b(2) = (  0.000000  0.433013  0.000000 )
               b(3) = (  0.000000  0.000000  0.295123 )

     PseudoPot. # 1 for Cu read from file:
     /home/549/hxw549/Short/pseudopotentials/Cu.pbe-n-van_ak.UPF
     MD5 check sum: 601f7c30f7467666bec936e0661ce3e1
     Pseudo is Ultrasoft + core correction, Zval = 11.0
     Generated by new atomic code, or converted to UPF format
     Using radial grid of  867 points,  6 beta functions with:
                l(1) =   0
                l(2) =   0
                l(3) =   1
                l(4) =   1
                l(5) =   2
                l(6) =   2
     Q(r) pseudized with  8 coefficients,  rinner =    1.400   1.400   1.400
                                                       1.400   1.400

     PseudoPot. # 2 for C  read from file:
     /home/549/hxw549/Short/pseudopotentials/C.star1s-pbe-mt_gipaw.UPF
     MD5 check sum: ef0cb3dee31bd9e4ba2a832a2c716264
     Pseudo is Norm-conserving, Zval =  5.0
     Generated by new atomic code, or converted to UPF format
     Using radial grid of 1073 points,  1 beta functions with:
                l(1) =   0

     PseudoPot. # 3 for C  read from file:
     /home/549/hxw549/Short/pseudopotentials/C.pbe-mt_gipaw.UPF
     MD5 check sum: 5ac2f21f2c440b14befe521540822c15
     Pseudo is Norm-conserving, Zval =  4.0
     Generated by new atomic code, or converted to UPF format
     Using radial grid of 1073 points,  1 beta functions with:
                l(1) =   0

     PseudoPot. # 4 for O  read from file:
     /home/549/hxw549/Short/pseudopotentials/O.pbe-van_gipaw.UPF
     MD5 check sum: 5ce2a047509d4f331db576c963e74b29
     Pseudo is Ultrasoft, Zval =  6.0
     Generated by new atomic code, or converted to UPF format
     Using radial grid of 1095 points,  4 beta functions with:
                l(1) =   0
                l(2) =   0
                l(3) =   1
                l(4) =   1
     Q(r) pseudized with 0 coefficients

     PseudoPot. # 5 for H  read from file:
     /home/549/hxw549/Short/pseudopotentials/H.pbe-van_ak.UPF
     MD5 check sum: 077eb6d537518a38cb46c6de387227b7
     Pseudo is Ultrasoft, Zval =  1.0
     Generated by new atomic code, or converted to UPF format
     Using radial grid of  615 points,  1 beta functions with:
                l(1) =   0
     Q(r) pseudized with  8 coefficients,  rinner =    0.800

     atomic species   valence    mass     pseudopotential
        Cu            11.00    63.54600     Cu( 1.00)
        C_h            5.00    12.01070     C ( 1.00)
        C              4.00    12.01070     C ( 1.00)
        O              6.00    15.99940     O ( 1.00)
        H              1.00     1.00783     H ( 1.00)

     No symmetry found

   Cartesian axes

     site n.     atom                  positions (alat units)
         1           Cu  tau(   1) = (  -0.0010640  -0.0023908   1.0046138  )
         2           Cu  tau(   2) = (   0.2492312   0.2287438   1.0043535  )
         3           Cu  tau(   3) = (   0.4997213  -0.0020557   1.0044178  )
         4           Cu  tau(   4) = (   0.7494458   0.2297361   1.0044330  )
         5           Cu  tau(   5) = (  -0.0003137   0.4611849   1.0049174  )
         6           Cu  tau(   6) = (   0.2493451   0.6933339   1.0051902  )
         7           Cu  tau(   7) = (   0.4989850   0.4609350   1.0047007  )
         8           Cu  tau(   8) = (   0.7493025   0.6926311   1.0049004  )
         9           Cu  tau(   9) = (  -0.0009524   0.9253608   1.0047609  )
        10           Cu  tau(  10) = (   0.2493354   1.1572557   1.0045765  )
        11           Cu  tau(  11) = (   0.4995584   0.9253176   1.0049044  )
        12           Cu  tau(  12) = (   0.7492457   1.1577467   1.0049301  )
        13           Cu  tau(  13) = (  -0.0007607   1.3884523   1.0051980  )
        14           Cu  tau(  14) = (   0.2492853   1.6181647   1.0059253  )
        15           Cu  tau(  15) = (   0.4993115   1.3886309   1.0054232  )
        16           Cu  tau(  16) = (   0.7492725   1.6184104   1.0057216  )
        17           Cu  tau(  17) = (  -0.0005173   1.8474410   1.0056666  )
        18           Cu  tau(  18) = (   0.2493732   2.0771941   1.0049712  )
        19           Cu  tau(  19) = (   0.4991007   1.8472417   1.0058485  )
        20           Cu  tau(  20) = (   0.7492518   2.0762819   1.0054449  )
        21           Cu  tau(  21) = (  -0.0009628   0.2289347   1.2519010  )
        22           Cu  tau(  22) = (   0.2489710  -0.0022349   1.2533118  )
        23           Cu  tau(  23) = (   0.4989967   0.2289318   1.2519859  )
        24           Cu  tau(  24) = (   0.7490469  -0.0016894   1.2526627  )
        25           Cu  tau(  25) = (  -0.0009870   0.6931250   1.2520313  )
        26           Cu  tau(  26) = (   0.2490671   0.4602952   1.2521070  )
        27           Cu  tau(  27) = (   0.4990229   0.6927300   1.2520111  )
        28           Cu  tau(  28) = (   0.7489647   0.4607580   1.2524746  )
        29           Cu  tau(  29) = (  -0.0010398   1.1572051   1.2525916  )
        30           Cu  tau(  30) = (   0.2490028   0.9259700   1.2519533  )
        31           Cu  tau(  31) = (   0.4990907   1.1572486   1.2527904  )
        32           Cu  tau(  32) = (   0.7490506   0.9253261   1.2514892  )
        33           Cu  tau(  33) = (  -0.0010799   1.6180392   1.2552412  )
        34           Cu  tau(  34) = (   0.2490387   1.3874055   1.2537251  )
        35           Cu  tau(  35) = (   0.4990463   1.6181047   1.2558878  )
        36           Cu  tau(  36) = (   0.7489693   1.3879951   1.2542289  )
        37           Cu  tau(  37) = (  -0.0009952   2.0772742   1.2548392  )
        38           Cu  tau(  38) = (   0.2490000   1.8482620   1.2554079  )
        39           Cu  tau(  39) = (   0.4989851   2.0775805   1.2544442  )
        40           Cu  tau(  40) = (   0.7489314   1.8476310   1.2563228  )
        41           Cu  tau(  41) = (  -0.0012033  -0.0009002   1.5028346  )
        42           Cu  tau(  42) = (   0.2488076   0.2280811   1.5019068  )
        43           Cu  tau(  43) = (   0.4983360  -0.0012160   1.5030626  )
        44           Cu  tau(  44) = (   0.7482862   0.2282454   1.5017748  )
        45           Cu  tau(  45) = (  -0.0015433   0.4596013   1.4997607  )
        46           Cu  tau(  46) = (   0.2486489   0.6933466   1.4985181  )
        47           Cu  tau(  47) = (   0.4986141   0.4593638   1.5006040  )
        48           Cu  tau(  48) = (   0.7484418   0.6939650   1.4999225  )
        49           Cu  tau(  49) = (  -0.0015404   0.9257492   1.5004063  )
        50           Cu  tau(  50) = (   0.2484450   1.1571046   1.5030467  )
        51           Cu  tau(  51) = (   0.4986878   0.9253575   1.5000131  )
        52           Cu  tau(  52) = (   0.7486901   1.1560980   1.5017044  )
        53           Cu  tau(  53) = (  -0.0011572   1.3870323   1.5040793  )
        54           Cu  tau(  54) = (   0.2484867   1.6171270   1.5041129  )
        55           Cu  tau(  55) = (   0.4984038   1.3866792   1.5045243  )
        56           Cu  tau(  56) = (   0.7485057   1.6168076   1.5059139  )
        57           Cu  tau(  57) = (  -0.0010914   1.8476653   1.5064678  )
        58           Cu  tau(  58) = (   0.2484724   2.0779001   1.5067307  )
        59           Cu  tau(  59) = (   0.4979889   1.8491510   1.5064335  )
        60           Cu  tau(  60) = (   0.7485533   2.0792749   1.5047190  )
[...]
       112           C   tau( 112) = (   0.8366011   0.3789160   2.3834557  )
       113           C   tau( 113) = (   0.0039914   0.6692637   2.3901638  )
       114           C   tau( 114) = (   0.0047886   0.8628183   2.3799876  )
       115           C   tau( 115) = (   0.1700523   0.5725106   2.3894660  )
       116           C   tau( 116) = (   0.1708227   0.9620580   2.3728989  )
       117           C   tau( 117) = (   0.3364157   0.6704142   2.3869740  )
       118           C   tau( 118) = (   0.3366336   0.8645112   2.3824567  )
       119           C   tau( 119) = (   0.5028532   0.5725996   2.3841996  )
       120           C   tau( 120) = (   0.5032938   0.9615900   2.3764364  )
       121           C   tau( 121) = (   0.6696582   0.6692635   2.3853739  )
       122           C   tau( 122) = (   0.6697515   0.8627502   2.3802298  )
       123           C   tau( 123) = (   0.8368768   0.5727868   2.3885314  )
       124           C   tau( 124) = (   0.8372862   0.9564921   2.3724215  )
       125           C   tau( 125) = (   0.0012861   1.2460736   2.3404574  )
       126           C   tau( 126) = (   0.1696514   1.1576429   2.3549811  )
       127           C_h tau( 127) = (   0.3379386   1.2570092   2.3615588  )
       128           C   tau( 128) = (   0.5046058   1.1563742   2.3655392  )
       129           C   tau( 129) = (   0.6721374   1.2425272   2.3358865  )
       130           C   tau( 130) = (   0.8374497   1.1482468   2.3484453  )
       131           H   tau( 131) = (   0.1694449  -0.1543018   2.3509582  )
       132           H   tau( 132) = (   0.5033915  -0.1534829   2.3385532  )
       133           H   tau( 133) = (   0.8366981  -0.1541085   2.3501637  )
       134           H   tau( 134) = (  -0.0054473   1.3935197   2.3405423  )
       135           H   tau( 135) = (   0.6793985   1.3888379   2.3243999  )
       136           C   tau( 136) = (   0.3363181   1.4541569   2.3637881  )
       137           O   tau( 137) = (   0.2171155   1.5576896   2.3728618  )
       138           O   tau( 138) = (   0.4734734   1.5386774   2.3744155  )
       139           H   tau( 139) = (   0.4604717   1.6689179   2.3734279  )

     number of k points=     6  gaussian smearing, width (Ry)=  0.1000
                       cart. coord. in units 2pi/alat
        k(    1) = (   0.0000000   0.0000000   0.0000000), wk =   0.2500000
        k(    2) = (   0.0000000  -0.2165064   0.0000000), wk =   0.2500000
        k(    3) = (   0.2500000   0.0000000   0.0000000), wk =   0.5000000
        k(    4) = (   0.2500000  -0.2165064   0.0000000), wk =   0.5000000
        k(    5) = (  -0.5000000   0.0000000   0.0000000), wk =   0.2500000
        k(    6) = (  -0.5000000  -0.2165064   0.0000000), wk =   0.2500000

     Largest allocated arrays     est. size (Mb)     dimensions
     Largest temporary arrays     est. size (Mb)     dimensions

     Initial potential from superposition of free atoms
     Check: negative starting charge=   -0.002151

     starting charge 1225.31748, renormalised to 1242.00000

     negative rho (up, down):  2.180E-03 0.000E+00
     Starting wfc are 1162 randomized atomic wfcs

     Self-consistent Calculation

     iteration #  1     ecut=    80.00 Ry     beta=0.70
     Davidson diagonalization with overlap
     c_bands:  1 eigenvalues not converged
     ethr =  1.00E-04,  avg # of iterations = 20.0

     negative rho (up, down):  2.687E+01 0.000E+00

     total energy              =   -8572.65550557 Ry
     Harris-Foulkes estimate   =  -15092.33177115 Ry
     estimated scf accuracy    <  145588.02258511 Ry

     iteration #  2     ecut=    80.00 Ry     beta=0.70
     Davidson diagonalization with overlap
     ethr =  1.00E-02,  avg # of iterations = 12.7

[...]

     iteration # 51     ecut=    80.00 Ry     beta=0.70
     Davidson diagonalization with overlap
     c_bands:  1 eigenvalues not converged
     ethr =  1.79E-08,  avg # of iterations = 10.2

[...]

     total energy              =  -12583.60248649 Ry
     Harris-Foulkes estimate   =  -12583.60248652 Ry
     estimated scf accuracy    <       0.00000002 Ry

     iteration # 59     ecut=    80.00 Ry     beta=0.70
     Davidson diagonalization with overlap
     ethr =  1.72E-12,  avg # of iterations =  2.8

     negative rho (up, down):  2.376E-03 0.000E+00

     End of self-consistent calculation

          k = 0.0000 0.0000 0.0000 (256287 PWs)   bands (ev):

   -23.9096 -19.2357 -17.1162 -16.4401 -15.7078 -14.8769 -14.7393 -14.5180
   -14.2204 -14.0487 -13.5263 -13.3455 -12.8430 -12.2565 -12.1557 -11.6108
   -10.7780 -10.6532  -9.8927  -9.5682  -9.4714  -9.0652  -8.8465  -8.6843
    -8.1394  -7.9503  -7.6931  -7.5856  -7.1186  -6.9579  -6.8279  -6.6566
    -6.4824  -6.3028  -6.0859  -5.9744  -5.9617  -5.7459  -5.7274  -5.4999
    -5.4220  -5.2188  -5.0999  -5.0114  -4.7801  -4.6153  -4.5295  -4.4798
    -4.4327  -4.3247  -4.0461  -3.9052  -3.8938  -3.8871  -3.7484  -3.6792
    -3.5618  -3.5122  -3.5082  -3.5059  -3.4989  -3.4944  -3.4928  -3.4827
    -3.4109  -3.2921  -3.2551  -3.2084  -3.1830  -3.1278  -3.1071  -3.0554
    -3.0235  -2.9380  -2.8457  -2.8238  -2.8196  -2.7516  -2.6976  -2.6877
    -2.6825  -2.6453  -2.6443  -2.6400  -2.6397  -2.6060  -2.5428  -2.5160
    -2.5140  -2.5055  -2.5045  -2.4368  -2.4110  -2.3761  -2.3316  -2.2680
    -2.2409  -2.2294  -2.2222  -2.2181  -2.1901  -2.1676  -2.1549  -2.1447
    -2.1392  -2.1095  -2.0942  -2.0722  -2.0645  -2.0547  -2.0536  -2.0430
    -2.0198  -2.0065  -2.0037  -1.9937  -1.9754  -1.9402  -1.9367  -1.9196
    -1.9015  -1.8804  -1.8693  -1.8433  -1.8106  -1.7887  -1.7824  -1.7588
    -1.7488  -1.7401  -1.7068  -1.7023  -1.7006  -1.6838  -1.6785  -1.6591
    -1.6529  -1.6287  -1.6058  -1.5677  -1.5440  -1.5421  -1.5347  -1.5254
    -1.5227  -1.5191  -1.5169  -1.5142  -1.5131  -1.5123  -1.5041  -1.4949
    -1.4936  -1.4881  -1.4812  -1.4450  -1.4425  -1.4312  -1.4274  -1.4153
    -1.4109  -1.4071  -1.4036  -1.3789  -1.3545  -1.3504  -1.3490  -1.3477
    -1.3458  -1.3426  -1.3419  -1.3400  -1.3385  -1.3383  -1.3355  -1.3319
    -1.3304  -1.3279  -1.3244  -1.3114  -1.3016  -1.2731  -1.2385  -1.1875
    -1.1788  -1.1748  -1.1733  -1.1666  -1.1484  -1.1345  -1.1318  -1.1179
    -1.1048  -1.0992  -1.0943  -1.0893  -1.0870  -1.0787  -1.0558  -1.0546
    -1.0514  -1.0491  -1.0467  -1.0450  -1.0373  -1.0303  -0.9883  -0.9810
    -0.9773  -0.9341  -0.9329  -0.9248  -0.9206  -0.9195  -0.9150  -0.9139
    -0.9070  -0.9007  -0.8951  -0.8946  -0.8929  -0.8926  -0.8907  -0.8874
    -0.8829  -0.8762  -0.8758  -0.8712  -0.8690  -0.8498  -0.8403  -0.8390
    -0.8030  -0.7946  -0.7835  -0.7830  -0.7799  -0.7649  -0.7587  -0.7580
    -0.7512  -0.7506  -0.7465  -0.7412  -0.7373  -0.7346  -0.7322  -0.7164
    -0.7147  -0.7132  -0.7102  -0.7076  -0.7059  -0.7033  -0.7017  -0.6997
    -0.6972  -0.6846  -0.6806  -0.6760  -0.6738  -0.6630  -0.6402  -0.6347
    -0.6199  -0.6109  -0.6050  -0.6041  -0.5926  -0.5784  -0.5728  -0.5681
    -0.5569  -0.5550  -0.5540  -0.5533  -0.5507  -0.5489  -0.5363  -0.5199
    -0.5072  -0.5029  -0.5027  -0.4954  -0.4935  -0.4867  -0.4749  -0.4692
    -0.4641  -0.4605  -0.4579  -0.4540  -0.4507  -0.4477  -0.4434  -0.4429
    -0.4342  -0.4305  -0.4290  -0.4277  -0.4255  -0.4231  -0.4081  -0.4054
    -0.3933  -0.3884  -0.3852  -0.3595  -0.3529  -0.3333  -0.3242  -0.3210
    -0.2963  -0.2941  -0.2710  -0.2608  -0.2593  -0.2574  -0.2534  -0.2471
    -0.2433  -0.2369  -0.2305  -0.2256  -0.2162  -0.2109  -0.2079  -0.2015
    -0.1907  -0.1609  -0.1583  -0.1531  -0.1477  -0.1468  -0.1431  -0.1347
    -0.1218  -0.1180  -0.1140  -0.1123  -0.1046  -0.0987  -0.0748  -0.0712
    -0.0689  -0.0637  -0.0523  -0.0507  -0.0476  -0.0371  -0.0164  -0.0118
    -0.0046  -0.0030   0.0021   0.0107   0.0127   0.0142   0.0191   0.0206
     0.0306   0.0353   0.0377   0.0385   0.0411   0.0453   0.0484   0.0516
     0.0533   0.0558   0.0585   0.0624   0.0657   0.0743   0.0798   0.0830
     0.1058   0.1085   0.1136   0.1154   0.1159   0.1269   0.1359   0.1492
     0.1538   0.1563   0.1613   0.1629   0.1633   0.1646   0.1669   0.1795
     0.1824   0.1854   0.1954   0.1970   0.1977   0.1994   0.2023   0.2087
     0.2117   0.2197   0.2284   0.2340   0.2369   0.2398   0.2475   0.2489
     0.2570   0.2592   0.2594   0.2630   0.2663   0.2697   0.2709   0.2778
     0.3117   0.3139   0.3204   0.3235   0.3252   0.3292   0.3320   0.3397
     0.3469   0.3628   0.3661   0.3699   0.3773   0.3868   0.3879   0.3949
     0.3991   0.4039   0.4058   0.4078   0.4115   0.4161   0.4213   0.4272
     0.4342   0.4366   0.4424   0.4437   0.4482   0.4536   0.4625   0.4645
     0.4691   0.4823   0.4877   0.4883   0.4954   0.5059   0.5086   0.5114
     0.5177   0.5193   0.5208   0.5224   0.5273   0.5287   0.5343   0.5397
     0.5408   0.5467   0.5484   0.5546   0.5582   0.5634   0.5716   0.5736
     0.5811   0.5840   0.5900   0.5909   0.6003   0.6076   0.6097   0.6125
[...]
     3.3748   3.3983   3.4312   3.4438   3.4768   3.4997   3.5064   3.5125
     3.5285   3.5469   3.5880   3.6665   3.7332   3.7384   3.7903   3.8946
     3.9982   4.1298   4.2979   4.4355   4.5967   4.7690   4.8033   4.9300
     5.0788   5.1782   5.2075   5.3168   5.3691   5.4019   5.4554   5.5764
     5.6795   5.7915   5.7989   5.9224   5.9376   5.9847   6.0032   6.0184
     6.1395   6.2023   6.2107   6.2496   6.2703   6.3083   6.3468   6.4193
     6.4952   6.5534   6.5959   6.6298   6.6889   6.8542   6.8661   6.9562
     6.9977   7.1228   7.1489   7.1922   7.2193   7.2624   7.2842   7.2948
     7.4277   7.5409   7.5723   7.6587   7.6767   7.7134   7.8226   7.8423
     7.8496   7.8672   7.8990   7.9431   7.9727   8.0554   8.0707   8.0998
     8.1214   8.1983   8.2323   8.2621   8.2745   8.3170   8.3329   8.3465
     8.3618   8.3745   8.3952   8.4247   8.4606   8.4987   8.5692   8.5959
     8.7030   8.7475   8.7631   8.7927   8.8511   8.8809   8.9322   9.0682
     9.1035   9.1590   9.2050   9.2353   9.3097   9.3426   9.3805   9.4634
     9.5199

[...]

          k = 0.2500-0.2165 0.0000 (256316 PWs)   bands (ev):

[...]

          k =-0.5000 0.0000 0.0000 (256496 PWs)   bands (ev):

[...]

          k =-0.5000-0.2165 0.0000 (256328 PWs)   bands (ev):

   -23.9095 -19.2363 -16.9911 -16.1632 -15.9684 -15.6100 -15.1734 -14.6858
   -14.0291 -13.4479 -12.7165 -12.5454 -12.3340 -12.0700 -11.9659 -11.8702
   -11.5281 -11.0800 -10.7588 -10.0296  -9.7492  -9.5431  -9.3805  -8.7169
    -8.5908  -8.4029  -7.6236  -7.0530  -6.6422  -6.4265  -5.9765  -5.7520
    -5.6823  -5.6789  -5.6690  -5.6501  -5.6420  -5.4298  -5.3999  -5.3077
    -5.0960  -4.8727  -4.8300  -4.7690  -4.7436  -4.7130  -4.7068  -4.6797
    -4.6743  -4.6272  -4.6013  -4.4529  -4.4193  -4.3875  -4.3039  -4.1761
    -4.1549  -4.0626  -4.0362  -3.8509  -3.7993  -3.7820  -3.6939  -3.6648
    -3.6295  -3.5800  -3.3232  -3.1925  -3.1238  -3.0715  -3.0681  -3.0677
    -3.0469  -3.0436  -3.0262  -3.0096  -2.9662  -2.9158  -2.7494  -2.6199
    -2.5896  -2.5760  -2.5618  -2.5578  -2.5336  -2.5111  -2.4807  -2.4463
    -2.3033  -2.2980  -2.2905  -2.2827  -2.2214  -2.1843  -2.1289  -2.0769
    -2.0729  -2.0607  -2.0131  -1.9917  -1.9878  -1.9837  -1.9820  -1.9646
    -1.9498  -1.9375  -1.9322  -1.9290  -1.9196  -1.9192  -1.8874  -1.8856
    -1.8806  -1.8771  -1.8737  -1.8716  -1.8675  -1.8606  -1.8575  -1.8518
    -1.8498  -1.8496  -1.8467  -1.8053  -1.8031  -1.7979  -1.7938  -1.7700
    -1.7350  -1.7337  -1.7228  -1.7175  -1.6848  -1.6835  -1.6811  -1.6791
    -1.6700  -1.6645  -1.6570  -1.6451  -1.6358  -1.6300  -1.6186  -1.6146
    -1.6121  -1.6095  -1.6073  -1.6043  -1.6034  -1.6025  -1.5812  -1.5689
    -1.5558  -1.5544  -1.5444  -1.5430  -1.5394  -1.5373  -1.5343  -1.5339
    -1.5290  -1.5265  -1.5243  -1.5197  -1.5125  -1.4986  -1.4246  -1.3829
    -1.3794  -1.3679  -1.3588  -1.3451  -1.3438  -1.3434  -1.3409  -1.2857
    -1.2773  -1.2674  -1.2662  -1.2585  -1.2572  -1.2558  -1.2505  -1.2495
    -1.2486  -1.2458  -1.2243  -1.1961  -1.1936  -1.1915  -1.1883  -1.1858
    -1.1811  -1.1706  -1.1689  -1.1632  -1.1573  -1.1507  -1.1407  -1.0961
    -1.0848  -1.0698  -1.0660  -1.0513  -1.0459  -1.0310  -1.0229  -0.9973
    -0.9923  -0.9888  -0.9826  -0.9430  -0.9412  -0.9406  -0.9389  -0.9250
    -0.9243  -0.9165  -0.9116  -0.9058  -0.8977  -0.8883  -0.8866  -0.8822
    -0.8814  -0.8784  -0.8762  -0.8475  -0.8368  -0.8213  -0.8179  -0.7738
    -0.7720  -0.7610  -0.7596  -0.7500  -0.7487  -0.7445  -0.7432  -0.7365
    -0.7328  -0.7309  -0.7278  -0.6896  -0.6646  -0.6580  -0.6535  -0.6510
    -0.6479  -0.6451  -0.6435  -0.6425  -0.6407  -0.6372  -0.6327  -0.6070
    -0.6046  -0.6028  -0.6019  -0.5965  -0.5927  -0.5908  -0.5893  -0.5874
    -0.5849  -0.5843  -0.5820  -0.5632  -0.5383  -0.5265  -0.5200  -0.5188
    -0.5099  -0.5038  -0.4981  -0.4928  -0.4795  -0.4570  -0.4480  -0.4410
    -0.4345  -0.4285  -0.4172  -0.4139  -0.4113  -0.4107  -0.4081  -0.4058
    -0.4044  -0.4006  -0.3980  -0.3963  -0.3951  -0.3935  -0.3916  -0.3873
    -0.3856  -0.3843  -0.3822  -0.3794  -0.3765  -0.3726  -0.3671  -0.3650
    -0.3622  -0.3618  -0.3446  -0.3443  -0.3426  -0.3411  -0.3335  -0.3272
    -0.3268  -0.3187  -0.3161  -0.3103  -0.2862  -0.2811  -0.2790  -0.2760
    -0.2728  -0.2505  -0.2481  -0.2437  -0.2417  -0.2229  -0.1800  -0.1737
    -0.1707  -0.1692  -0.1648  -0.1583  -0.1529  -0.1506  -0.1469  -0.1421
    -0.1401  -0.1361  -0.1303  -0.1282  -0.1252  -0.1231  -0.1197  -0.1181
    -0.1155  -0.1138  -0.1117  -0.1070  -0.1048  -0.0730  -0.0690  -0.0590
    -0.0463  -0.0427  -0.0401  -0.0370  -0.0324  -0.0221  -0.0218  -0.0207
    -0.0202  -0.0075  -0.0008   0.0021   0.0056   0.0097   0.0133   0.0165
     0.0198   0.0264   0.0291   0.0360   0.0448   0.0528   0.0539   0.0587
     0.0597   0.0677   0.0715   0.0722   0.0749   0.0768   0.0798   0.0822
     0.0830   0.0856   0.0907   0.0938   0.1036   0.1041   0.1129   0.1152
     0.1236   0.1297   0.1416   0.1518   0.1541   0.1695   0.1720   0.1785
     0.1859   0.1901   0.1932   0.1944   0.1961   0.1977   0.2035   0.2042
     0.2169   0.2239   0.2314   0.2349   0.2367   0.2372   0.2384   0.2397
     0.2425   0.2498   0.2555   0.2773   0.2843   0.2903   0.2947   0.3025
     0.3168   0.3209   0.3218   0.3245   0.3311   0.3494   0.3512   0.3534
     0.3581   0.3605   0.3753   0.3846   0.3889   0.3953   0.4113   0.4304
     0.4323   0.4335   0.4360   0.4534   0.4596   0.4626   0.4677   0.4727
     0.4850   0.4924   0.5031   0.5084   0.5091   0.5179   0.5226   0.5254
     0.5333   0.5377   0.5429   0.5462   0.5480   0.5510   0.5517   0.5522
     0.5539   0.5552   0.5558   0.5578   0.5591   0.5635   0.5660   0.5700
     0.5718   0.5757   0.5802   0.5868   0.5884   0.5943   0.5978   0.6025
[...]
     3.6763   3.6922   3.7263   3.7353   3.7433   3.7949   3.9036   3.9205
     3.9460   4.0218   4.0297   4.0503   4.1028   4.1251   4.1927   4.2040
     4.2772   4.3524   4.4533   4.5662   4.6417   4.6507   4.6610   4.6896
     4.7151   4.7311   4.7533   4.7844   4.8185   4.8771   4.9129   4.9210
     5.0002   5.0969   5.2253   5.2375   5.2448   5.2520   5.3729   5.4216
     5.4473   5.5346   5.6253   6.1198   6.2072   6.3082   6.3287   6.3372
     6.3739   6.4613   6.5657   6.6135   6.6160   6.6490   6.6565   6.6659
     6.7023   6.7328   6.7624   6.8617   6.8780   6.8842   6.8879   6.8910
     6.9290   7.0281   7.1039   7.1207   7.1881   7.3229   7.4463   7.5066
     7.5729   7.6075   7.6690   7.7399   7.7537   7.7634   7.7737   7.9096
     7.9829   8.2010   8.2665   8.3410   8.3533   8.3732   8.3862   8.3906
     8.4233   8.4288   8.4687   8.4722   8.4769   8.4886   8.5113   8.5383
     8.6395   8.6469   8.6644   8.6705   8.6829   8.6965   8.7830   8.8724
     8.8829   8.9612   8.9703   9.0625   9.0864   9.1469   9.1816   9.3246
     9.3864

     the Fermi energy is     2.8318 ev

!    total energy              =  -12583.60248648 Ry
     Harris-Foulkes estimate   =  -12583.60248649 Ry
     estimated scf accuracy    <          8.4E-09 Ry

     The total energy is the sum of the following terms:

     one-electron contribution = -110503.70498771 Ry
     hartree contribution      =   56574.60312003 Ry
     xc contribution           =   -4406.29111054 Ry
     ewald contribution        =   45757.89906746 Ry
     Dispersion Correction     =      -2.82897803 Ry
     smearing contrib. (-TS)   =      -3.27959769 Ry

     convergence has been achieved in  59 iterations

     Writing output data file gc.save

     General routines

     Parallel routines

   This run was terminated on:  11: 9:40  22Sep2017

   JOB DONE.