     Program PWSCF v.5.4.0 starts on 27Apr2017 at 16:21:54

     Current dimensions of program PWSCF are:
     Max number of different atomic species (ntypx) = 10
     Max number of k-points (npk) =  40000
     Max angular momentum in pseudopotentials (lmaxx) =  3

     Parameters for Dispersion Correction:
       atom      VdW radius       C_6

        Cu         2.952        374.666
        C_h        2.744         60.710
        C          2.744         60.710

     bravais-lattice index     =            0
     lattice parameter (alat)  =      13.9425  a.u.
     unit-cell volume          =   21209.0878 (a.u.)^3
     number of atoms/cell      =          148
     number of atomic types    =            3
     number of electrons       =      1292.00
     number of Kohn-Sham states=          775
     kinetic-energy cutoff     =      80.0000  Ry
     charge density cutoff     =     320.0000  Ry
     convergence threshold     =      1.0E-08
     mixing beta               =       0.7000
     number of iterations used =            8  local-TF  mixing
     Exchange-correlation      =  SLA  PW   PBX  PBC ( 1  4  3  4 0 0)

     celldm(1)=  13.942539  celldm(2)=   0.000000  celldm(3)=   0.000000
     celldm(4)=   0.000000  celldm(5)=   0.000000  celldm(6)=   0.000000

     crystal axes: (cart. coord. in units of alat)
               a(1) = (   1.000000   0.000000   0.000000 )
               a(2) = (   0.000000   2.309401   0.000000 )
               a(3) = (   0.000000   0.000000   3.388418 )

     reciprocal axes: (cart. coord. in units 2 pi/alat)
               b(1) = (  1.000000  0.000000  0.000000 )
               b(2) = (  0.000000  0.433013  0.000000 )
               b(3) = (  0.000000  0.000000  0.295123 )

     PseudoPot. # 1 for Cu read from file:
     /home/549/hxw549/Short/pseudopotentials/Cu.pbe-n-van_ak.UPF
     MD5 check sum: 601f7c30f7467666bec936e0661ce3e1
     Pseudo is Ultrasoft + core correction, Zval = 11.0
     Generated by new atomic code, or converted to UPF format
     Using radial grid of  867 points,  6 beta functions with:
                l(1) =   0
                l(2) =   0
                l(3) =   1
                l(4) =   1
                l(5) =   2
                l(6) =   2
     Q(r) pseudized with  8 coefficients,  rinner =    1.400   1.400   1.400
                                                       1.400   1.400

     PseudoPot. # 2 for C  read from file:
     /home/549/hxw549/Short/pseudopotentials/C.star1s-pbe-mt_gipaw.UPF
     MD5 check sum: ef0cb3dee31bd9e4ba2a832a2c716264
     Pseudo is Norm-conserving, Zval =  5.0
     Generated by new atomic code, or converted to UPF format
     Using radial grid of 1073 points,  1 beta functions with:
                l(1) =   0

     PseudoPot. # 3 for C  read from file:
     /home/549/hxw549/Short/pseudopotentials/C.pbe-mt_gipaw.UPF
     MD5 check sum: 5ac2f21f2c440b14befe521540822c15
     Pseudo is Norm-conserving, Zval =  4.0
     Generated by new atomic code, or converted to UPF format
     Using radial grid of 1073 points,  1 beta functions with:
                l(1) =   0

     atomic species   valence    mass     pseudopotential
        Cu            11.00    63.54600     Cu( 1.00)
        C_h            5.00    12.01070     C ( 1.00)
        C              4.00    12.01070     C ( 1.00)

      2 Sym. Ops. (no inversion) found

                                    s                        frac. trans.

      isym =  1     identity

 cryst.   s( 1) = (     1          0          0      )
                  (     0          1          0      )
                  (     0          0          1      )

 cart.    s( 1) = (  1.0000000  0.0000000  0.0000000 )
                  (  0.0000000  1.0000000  0.0000000 )
                  (  0.0000000  0.0000000  1.0000000 )

      isym =  2     inv. 180 deg rotation - cart. axis [1,0,0]

 cryst.   s( 2) = (    -1          0          0      )
                  (     0          1          0      )
                  (     0          0          1      )

 cart.    s( 2) = ( -1.0000000  0.0000000  0.0000000 )
                  (  0.0000000  1.0000000  0.0000000 )
                  (  0.0000000  0.0000000  1.0000000 )

   Cartesian axes

     site n.     atom                  positions (alat units)
         1           Cu  tau(   1) = (   0.0000000   0.0000567   0.9971194  )
         2           Cu  tau(   2) = (   0.2499927   0.2309760   0.9972946  )
         3           Cu  tau(   3) = (   0.5000000   0.0000313   0.9971490  )
         4           Cu  tau(   4) = (   0.7500073   0.2309760   0.9972946  )
         5           Cu  tau(   5) = (   0.0000000   0.4618437   0.9973425  )
         6           Cu  tau(   6) = (   0.2499840   0.6927701   0.9971914  )
         7           Cu  tau(   7) = (   0.5000000   0.4618722   0.9973119  )
         8           Cu  tau(   8) = (   0.7500160   0.6927701   0.9971914  )
         9           Cu  tau(   9) = (   0.0000000   0.9237521   0.9970621  )
        10           Cu  tau(  10) = (   0.2500157   1.1547420   0.9971373  )
        11           Cu  tau(  11) = (   0.5000000   0.9237453   0.9970727  )
        12           Cu  tau(  12) = (   0.7499843   1.1547420   0.9971373  )
        13           Cu  tau(  13) = (   0.0000000   1.3856555   0.9972830  )
        14           Cu  tau(  14) = (   0.2500029   1.6165618   0.9973242  )
        15           Cu  tau(  15) = (   0.5000000   1.3857014   0.9973005  )
        16           Cu  tau(  16) = (   0.7499971   1.6165618   0.9973242  )
        17           Cu  tau(  17) = (   0.0000000   1.8474941   0.9971969  )
        18           Cu  tau(  18) = (   0.2500043   2.0784518   0.9970745  )
        19           Cu  tau(  19) = (   0.5000000   1.8474499   0.9971773  )
        20           Cu  tau(  20) = (   0.7499957   2.0784518   0.9970745  )
        21           Cu  tau(  21) = (   0.0000000   0.2308065   1.2457643  )
        22           Cu  tau(  22) = (   0.2499892  -0.0001010   1.2455764  )
        23           Cu  tau(  23) = (   0.5000000   0.2308938   1.2456746  )
        24           Cu  tau(  24) = (   0.7500108  -0.0001010   1.2455764  )
        25           Cu  tau(  25) = (   0.0000000   0.6929786   1.2456406  )
        26           Cu  tau(  26) = (   0.2499874   0.4619293   1.2457459  )
        27           Cu  tau(  27) = (   0.5000000   0.6929012   1.2456074  )
        28           Cu  tau(  28) = (   0.7500126   0.4619293   1.2457459  )
        29           Cu  tau(  29) = (   0.0000000   1.1546142   1.2455676  )
        30           Cu  tau(  30) = (   0.2499981   0.9237849   1.2455149  )
        31           Cu  tau(  31) = (   0.5000000   1.1545763   1.2455800  )
        32           Cu  tau(  32) = (   0.7500019   0.9237849   1.2455149  )
        33           Cu  tau(  33) = (   0.0000000   1.6166029   1.2456910  )
        34           Cu  tau(  34) = (   0.2500161   1.3855492   1.2457134  )
        35           Cu  tau(  35) = (   0.5000000   1.6166555   1.2458019  )
        36           Cu  tau(  36) = (   0.7499839   1.3855492   1.2457134  )
        37           Cu  tau(  37) = (   0.0000000   2.0784993   1.2455162  )
        38           Cu  tau(  38) = (   0.2500161   1.8476387   1.2456210  )
        39           Cu  tau(  39) = (   0.5000000   2.0784755   1.2455152  )
        40           Cu  tau(  40) = (   0.7499839   1.8476387   1.2456210  )
        41           Cu  tau(  41) = (   0.0000000  -0.0003182   1.4954305  )
        42           Cu  tau(  42) = (   0.2500224   0.2307186   1.4951678  )
        43           Cu  tau(  43) = (   0.5000000  -0.0002059   1.4952775  )
        44           Cu  tau(  44) = (   0.7499776   0.2307186   1.4951678  )
        45           Cu  tau(  45) = (   0.0000000   0.4620254   1.4950571  )
        46           Cu  tau(  46) = (   0.2500339   0.6931225   1.4952807  )
        47           Cu  tau(  47) = (   0.5000000   0.4619896   1.4952144  )
        48           Cu  tau(  48) = (   0.7499661   0.6931225   1.4952807  )
        49           Cu  tau(  49) = (   0.0000000   0.9238798   1.4954544  )
        50           Cu  tau(  50) = (   0.2499708   1.1544329   1.4953374  )
        51           Cu  tau(  51) = (   0.5000000   0.9237633   1.4954072  )
        52           Cu  tau(  52) = (   0.7500292   1.1544329   1.4953374  )
        53           Cu  tau(  53) = (   0.0000000   1.3854453   1.4952066  )
        54           Cu  tau(  54) = (   0.2499861   1.6167017   1.4951298  )
        55           Cu  tau(  55) = (   0.5000000   1.3853760   1.4951346  )
        56           Cu  tau(  56) = (   0.7500139   1.6167017   1.4951298  )
        57           Cu  tau(  57) = (   0.0000000   1.8477718   1.4952308  )
        58           Cu  tau(  58) = (   0.2499930   2.0785254   1.4954090  )
        59           Cu  tau(  59) = (   0.5000000   1.8478762   1.4953503  )
        60           Cu  tau(  60) = (   0.7500070   2.0785254   1.4954090  )
[...]
       134           C   tau( 134) = (   0.6665134   1.4433958   2.3886602  )
       135           C   tau( 135) = (   0.8332640   1.1546708   2.3859697  )
       136           C   tau( 136) = (   0.8331061   1.5396104   2.3857176  )
       137           C   tau( 137) = (   0.0000000   1.8283510   2.3842019  )
       138           C   tau( 138) = (   0.0000000   2.0207949   2.3863399  )
       139           C   tau( 139) = (   0.1668959   1.7320513   2.3858703  )
       140           C   tau( 140) = (   0.1666186   2.1169980   2.3865340  )
       141           C   tau( 141) = (   0.3334155   1.8282368   2.3882160  )
       142           C   tau( 142) = (   0.3334352   2.0206763   2.3869561  )
       143           C   tau( 143) = (   0.5000000   1.7319961   2.3895398  )
       144           C   tau( 144) = (   0.5000000   2.1168754   2.3870198  )
       145           C   tau( 145) = (   0.6665845   1.8282368   2.3882160  )
       146           C   tau( 146) = (   0.6665648   2.0206763   2.3869561  )
       147           C   tau( 147) = (   0.8331041   1.7320513   2.3858703  )
       148           C   tau( 148) = (   0.8333814   2.1169980   2.3865340  )

   Crystallographic axes

     site n.     atom                  positions (cryst. coord.)
         1           Cu  tau(   1) = (  0.0000000  0.0000246  0.2942728  )
         2           Cu  tau(   2) = (  0.2499927  0.1000156  0.2943245  )
         3           Cu  tau(   3) = (  0.5000000  0.0000135  0.2942816  )
         4           Cu  tau(   4) = (  0.7500073  0.1000156  0.2943245  )
         5           Cu  tau(   5) = (  0.0000000  0.1999842  0.2943387  )
         6           Cu  tau(   6) = (  0.2499840  0.2999782  0.2942941  )
         7           Cu  tau(   7) = (  0.5000000  0.1999965  0.2943296  )
         8           Cu  tau(   8) = (  0.7500160  0.2999782  0.2942941  )
         9           Cu  tau(   9) = (  0.0000000  0.3999964  0.2942559  )
        10           Cu  tau(  10) = (  0.2500157  0.5000180  0.2942781  )
        11           Cu  tau(  11) = (  0.5000000  0.3999935  0.2942590  )
        12           Cu  tau(  12) = (  0.7499843  0.5000180  0.2942781  )
[...]
     1.0000   1.0000   1.0000   1.0000   1.0000   1.0000   1.0000   1.0000
     1.0000   1.0000   1.0000   1.0000   1.0000   1.0000   1.0000   1.0000
     1.0000   1.0000   1.0000   1.0000   1.0000   1.0000   1.0000   1.0000
     1.0000   1.0000   1.0000   1.0000   1.0000   1.0000   1.0000   1.0000
     1.0000   1.0000   1.0000   1.0000   1.0000   1.0000   1.0000   1.0000
     1.0000   1.0000   1.0000   1.0000   1.0000   1.0000   1.0000   1.0000
     1.0000   1.0000   1.0000   1.0000   1.0000   1.0000   1.0000   1.0000
     1.0000   1.0000   1.0000   1.0000   1.0000   1.0000   1.0000   1.0000
     1.0000   1.0000   1.0000   1.0000   1.0000   1.0000   1.0000   1.0000
     1.0000   1.0000   1.0000   1.0000   1.0000   1.0000   1.0000   1.0000
     1.0000   1.0000   1.0000   1.0000   1.0000   1.0000   1.0000   1.0000
     1.0000   1.0000   1.0000   1.0000   1.0000   1.0000   1.0000   1.0000
     1.0000   1.0000   1.0000   1.0000   1.0000   1.0000   1.0000   1.0000
     1.0000   1.0000   1.0000   1.0000   1.0000   1.0000   1.0000   1.0000
     1.0000   1.0000   1.0000   1.0000   1.0000   1.0000   0.9999   0.9999
     0.9999   0.9999   0.9999   0.9999   0.9999   0.9999   0.9999   0.9999
     0.9999   0.9999   0.9999   0.9999   0.9999   0.9999   0.9999   0.9999
     0.9999   0.9999   0.9999   0.9999   0.9999   0.9999   0.9999   0.9999
     0.9999   0.9999   0.9999   0.9999   0.9999   0.9999   0.9999   0.9999
     0.9999   0.9999   0.9999   0.9999   0.9999   0.9999   0.9999   0.9999
     0.9999   0.9999   0.9999   0.9999   0.9998   0.9998   0.9998   0.9998
     0.9998   0.9998   0.9998   0.9998   0.9998   0.9998   0.9998   0.9998
     0.9998   0.9998   0.9998   0.9998   0.9997   0.9997   0.9997   0.9997
     0.9997   0.9997   0.9997   0.9997   0.9997   0.9997   0.9997   0.9997
     0.9997   0.9997   0.9997   0.9997   0.9997   0.9997   0.9997   0.9997
     0.9997   0.9996   0.9996   0.9996   0.9996   0.9996   0.9996   0.9996
     0.9996   0.9995   0.9995   0.9995   0.9995   0.9995   0.9995   0.9995
     0.9994   0.9993   0.9993   0.9993   0.9993   0.9993   0.9993   0.9993
     0.9993   0.9993   0.9992   0.9992   0.9992   0.9992   0.9992   0.9991
     0.9991   0.9991   0.9991   0.9990   0.9990   0.9990   0.9990   0.9989
     0.9989   0.9989   0.9989   0.9989   0.9988   0.9987   0.9987   0.9987
     0.9987   0.9987   0.9987   0.9987   0.9987   0.9985   0.9985   0.9984
     0.9984   0.9984   0.9984   0.9984   0.9983   0.9982   0.9982   0.9982
     0.9982   0.9982   0.9981   0.9981   0.9981   0.9981   0.9981   0.9981
     0.9980   0.9980   0.9980   0.9980   0.9980   0.9980   0.9977   0.9977
     0.9977   0.9976   0.9976   0.9973   0.9973   0.9973   0.9973   0.9973
     0.9973   0.9973   0.9973   0.9972   0.9972   0.9971   0.9971   0.9970
     0.9970   0.9970   0.9970   0.9970   0.9970   0.9969   0.9969   0.9967
     0.9966   0.9966   0.9966   0.9965   0.9965   0.9964   0.9964   0.9964
     0.9964   0.9963   0.9963   0.9963   0.9962   0.9961   0.9960   0.9959
     0.9959   0.9958   0.9956   0.9956   0.9955   0.9955   0.9954   0.9954
     0.9954   0.9954   0.9949   0.9949   0.9947   0.9947   0.9946   0.9946
     0.9943   0.9943   0.9942   0.9942   0.9942   0.9942   0.9940   0.9938
     0.9935   0.9935   0.9935   0.9934   0.9934   0.9934   0.9931   0.9929
     0.9927   0.9925   0.9925   0.9923   0.9920   0.9920   0.9920   0.9920
[...]
     0.2956   0.2950   0.2950   0.2760   0.2609   0.2590   0.2545   0.2427
     0.2422   0.2411   0.2409   0.2408   0.2406   0.1728   0.1727   0.1722
     0.1719   0.1404   0.0992   0.0685   0.0476   0.0474   0.0450   0.0445
     0.0202   0.0171   0.0170   0.0154   0.0073   0.0073   0.0067   0.0066
     0.0035   0.0034   0.0010   0.0010   0.0007   0.0007   0.0006   0.0006
     0.0006   0.0006   0.0003   0.0003   0.0003   0.0003   0.0002   0.0002
     0.0002   0.0002   0.0001   0.0001   0.0001   0.0001   0.0001   0.0001
     0.0001   0.0001   0.0000   0.0000   0.0000   0.0000   0.0000   0.0000
     0.0000   0.0000   0.0000   0.0000   0.0000   0.0000   0.0000   0.0000
     0.0000   0.0000   0.0000   0.0000   0.0000   0.0000   0.0000   0.0000
     0.0000   0.0000   0.0000   0.0000   0.0000   0.0000   0.0000   0.0000
     0.0000   0.0000   0.0000   0.0000   0.0000   0.0000   0.0000   0.0000
     0.0000   0.0000   0.0000   0.0000   0.0000   0.0000   0.0000   0.0000
     0.0000   0.0000   0.0000   0.0000   0.0000   0.0000   0.0000   0.0000
     0.0000   0.0000   0.0000   0.0000   0.0000   0.0000   0.0000

[...]

          k = 0.2500-0.2165 0.0000 (256316 PWs)   bands (ev):

[...]

          k =-0.5000 0.0000 0.0000 (256496 PWs)   bands (ev):

[...]

          k =-0.5000-0.2165 0.0000 (256328 PWs)   bands (ev):

   -15.4993 -15.4992 -15.4959 -15.4959 -14.7605 -14.7605 -14.7604 -14.7603
   -13.3120 -13.3120 -13.3120 -13.3119 -11.6845 -11.6845 -11.6844 -11.6843
   -11.2438 -11.2438 -11.2430 -11.2429 -11.0635 -11.0635 -11.0634 -11.0634
    -9.3648  -9.3648  -9.3646  -9.3646  -8.4028  -8.4028  -8.3944  -8.3943
    -7.6332  -7.6332  -7.6330  -7.6329  -5.5571  -5.5570  -5.5569  -5.5569
    -4.9330  -4.9329  -4.9327  -4.9327  -4.8675  -4.8674  -4.8672  -4.8671
    -4.7066  -4.7065  -4.6954  -4.6953  -4.0299  -4.0298  -4.0172  -4.0171
    -3.8846  -3.8845  -3.8844  -3.8844  -3.8325  -3.8325  -3.8323  -3.8322
    -3.5633  -3.5633  -3.5591  -3.5591  -3.2833  -3.2833  -3.2823  -3.2823
    -3.2818  -3.2817  -3.2807  -3.2806  -3.1367  -3.1366  -3.1365  -3.1364
    -2.7425  -2.7425  -2.7423  -2.7423  -2.2649  -2.2649  -2.2646  -2.2646
    -2.2134  -2.2134  -2.2124  -2.2124  -1.9571  -1.9571  -1.9569  -1.9568
    -1.7800  -1.7800  -1.7796  -1.7795  -1.7029  -1.7028  -1.7021  -1.7020
    -1.6527  -1.6527  -1.6487  -1.6486  -1.4868  -1.4868  -1.4857  -1.4857
    -1.4047  -1.4046  -1.4040  -1.4040  -1.1809  -1.1808  -1.1807  -1.1805
    -1.1768  -1.1768  -1.1767  -1.1767  -1.1393  -1.1393  -1.1391  -1.1391
    -1.1171  -1.1171  -1.1169  -1.1169  -1.0669  -1.0667  -1.0667  -1.0665
    -1.0648  -1.0645  -1.0642  -1.0641  -1.0419  -1.0419  -1.0417  -1.0417
    -0.9911  -0.9911  -0.9906  -0.9906  -0.9164  -0.9164  -0.9157  -0.9156
    -0.8729  -0.8729  -0.8728  -0.8728  -0.8530  -0.8530  -0.8528  -0.8528
    -0.8041  -0.8041  -0.8040  -0.8040  -0.7986  -0.7986  -0.7986  -0.7986
    -0.7724  -0.7724  -0.7723  -0.7723  -0.7390  -0.7390  -0.7386  -0.7386
    -0.7219  -0.7219  -0.7217  -0.7217  -0.7195  -0.7195  -0.7191  -0.7191
    -0.6703  -0.6703  -0.6560  -0.6559  -0.5644  -0.5644  -0.5640  -0.5640
    -0.5352  -0.5352  -0.5349  -0.5349  -0.4518  -0.4517  -0.4513  -0.4510
    -0.4496  -0.4495  -0.4491  -0.4488  -0.4435  -0.4435  -0.4432  -0.4432
    -0.3823  -0.3823  -0.3820  -0.3820  -0.3711  -0.3711  -0.3701  -0.3700
    -0.3489  -0.3489  -0.3489  -0.3488  -0.2544  -0.2543  -0.2539  -0.2539
    -0.2492  -0.2492  -0.2483  -0.2483  -0.1804  -0.1804  -0.1799  -0.1799
    -0.1306  -0.1306  -0.1302  -0.1302  -0.1095  -0.1094  -0.1089  -0.1089
    -0.0840  -0.0840  -0.0832  -0.0832  -0.0707  -0.0707  -0.0699  -0.0699
    -0.0289  -0.0288  -0.0283  -0.0282   0.0451   0.0451   0.0457   0.0458
     0.0609   0.0609   0.0615   0.0616   0.0772   0.0772   0.0778   0.0778
     0.1588   0.1589   0.1592   0.1592   0.1644   0.1644   0.1647   0.1648
     0.1686   0.1687   0.1688   0.1688   0.2056   0.2056   0.2057   0.2058
     0.2186   0.2188   0.2194   0.2194   0.2221   0.2222   0.2223   0.2224
     0.2912   0.2912   0.2924   0.2925   0.3179   0.3180   0.3183   0.3183
     0.3653   0.3653   0.3665   0.3666   0.3753   0.3754   0.3793   0.3794
     0.3989   0.3989   0.3993   0.3994   0.4058   0.4058   0.4072   0.4074
     0.4098   0.4100   0.4114   0.4115   0.4195   0.4195   0.4202   0.4203
     0.4236   0.4236   0.4238   0.4238   0.4420   0.4420   0.4420   0.4420
     0.4693   0.4693   0.4694   0.4694   0.4797   0.4797   0.4800   0.4800
     0.5290   0.5291   0.5296   0.5296   0.5625   0.5625   0.5627   0.5628
     0.6202   0.6217   0.6270   0.6279   0.6464   0.6465   0.6473   0.6474
     0.6612   0.6614   0.6631   0.6633   0.6673   0.6678   0.6688   0.6693
     0.6802   0.6803   0.6810   0.6810   0.6866   0.6875   0.6877   0.6885
     0.6920   0.6924   0.6929   0.6935   0.7100   0.7104   0.7114   0.7115
     0.7691   0.7693   0.7697   0.7697   0.7769   0.7769   0.7777   0.7779
     0.7833   0.7834   0.7840   0.7842   0.8269   0.8269   0.8275   0.8277
     0.8283   0.8285   0.8290   0.8291   0.8733   0.8733   0.8735   0.8736
     0.8853   0.8855   0.8863   0.8865   0.8871   0.8873   0.8880   0.8881
     0.8951   0.8952   0.8953   0.8953   0.9101   0.9102   0.9105   0.9108
     0.9254   0.9254   0.9268   0.9268   0.9964   0.9965   0.9981   0.9983
     1.0023   1.0023   1.0026   1.0027   1.0066   1.0071   1.0083   1.0085
     1.0234   1.0234   1.0263   1.0263   1.0454   1.0455   1.0461   1.0461
     1.0494   1.0494   1.0495   1.0495   1.1002   1.1005   1.1019   1.1021
     1.1305   1.1308   1.1308   1.1312   1.1455   1.1456   1.1470   1.1476
     1.1643   1.1643   1.1649   1.1649   1.1897   1.1897   1.1920   1.1920
     1.2446   1.2447   1.2453   1.2453   1.2774   1.2775   1.2786   1.2787
     1.3314   1.3315   1.3316   1.3320   1.3432   1.3435   1.3447   1.3455
[...]
     4.5395   4.5396   4.5415   4.5417   4.6055   4.6055   4.6129   4.6129
     4.8624   4.8625   4.8647   4.8647   4.9048   4.9054   4.9065   4.9068
     5.1887   5.1888   5.1906   5.1909   5.3595   5.3595   5.3867   5.3869
     5.4828   5.4829   5.4869   5.4874   5.6022   5.6023   5.6170   5.6201
     5.6319   5.6320   5.6339   5.6360   6.0210   6.0212   6.0225   6.0229
     6.0588   6.0588   6.0599   6.0599   6.1591   6.1597   6.1634   6.1639
     7.0975   7.0975   7.0979   7.0979   7.4260   7.4260   7.4276   7.4277
     7.4582   7.4583   7.4584   7.4585   7.5362   7.5364   7.5365   7.5366
     7.6603   7.6604   7.6605   7.6606   7.9086   7.9087   7.9089   7.9092
     8.1471   8.1471   8.1500   8.1500   8.2672   8.2678   8.2704   8.2707
     8.3352   8.3359   8.3383   8.3392   8.5513   8.5514   8.5583   8.5584
     8.7887   8.7888   8.7892   8.7892   9.0990   9.0990   9.0993   9.0993
     9.1994   9.1994   9.2002   9.2003   9.2752   9.2752   9.2752   9.2752
     9.3083   9.3084   9.3096   9.3096   9.5592   9.5592   9.5622   9.5622
     9.8349   9.8354   9.8356   9.8457   9.8461   9.8462   9.8462

     occupation numbers
     1.0000   1.0000   1.0000   1.0000   1.0000   1.0000   1.0000   1.0000
     1.0000   1.0000   1.0000   1.0000   1.0000   1.0000   1.0000   1.0000
     1.0000   1.0000   1.0000   1.0000   1.0000   1.0000   1.0000   1.0000
     1.0000   1.0000   1.0000   1.0000   1.0000   1.0000   1.0000   1.0000
     1.0000   1.0000   1.0000   1.0000   1.0000   1.0000   1.0000   1.0000
     1.0000   1.0000   1.0000   1.0000   1.0000   1.0000   1.0000   1.0000
     1.0000   1.0000   1.0000   1.0000   1.0000   1.0000   1.0000   1.0000
     1.0000   1.0000   1.0000   1.0000   1.0000   1.0000   1.0000   1.0000
     1.0000   1.0000   1.0000   1.0000   1.0000   1.0000   1.0000   1.0000
     1.0000   1.0000   1.0000   1.0000   1.0000   1.0000   1.0000   1.0000
     1.0000   1.0000   1.0000   1.0000   1.0000   1.0000   1.0000   1.0000
     1.0000   1.0000   1.0000   1.0000   1.0000   1.0000   1.0000   1.0000
     1.0000   1.0000   1.0000   1.0000   1.0000   1.0000   1.0000   1.0000
     1.0000   1.0000   1.0000   1.0000   1.0000   1.0000   1.0000   1.0000
     1.0000   1.0000   1.0000   1.0000   1.0000   1.0000   1.0000   1.0000
     1.0000   1.0000   1.0000   1.0000   1.0000   1.0000   1.0000   1.0000
     1.0000   1.0000   1.0000   1.0000   1.0000   1.0000   1.0000   1.0000
     1.0000   1.0000   1.0000   1.0000   1.0000   1.0000   1.0000   1.0000
     1.0000   1.0000   1.0000   1.0000   1.0000   1.0000   1.0000   1.0000
     1.0000   1.0000   1.0000   1.0000   1.0000   1.0000   1.0000   1.0000
     1.0000   1.0000   1.0000   1.0000   1.0000   1.0000   1.0000   1.0000
     1.0000   1.0000   1.0000   1.0000   1.0000   1.0000   1.0000   1.0000
     1.0000   1.0000   1.0000   1.0000   1.0000   1.0000   1.0000   1.0000
     1.0000   1.0000   1.0000   1.0000   1.0000   1.0000   1.0000   1.0000
     1.0000   1.0000   1.0000   1.0000   1.0000   1.0000   1.0000   1.0000
     1.0000   1.0000   1.0000   1.0000   1.0000   1.0000   1.0000   1.0000
     1.0000   1.0000   1.0000   1.0000   1.0000   1.0000   1.0000   1.0000
     1.0000   1.0000   1.0000   1.0000   1.0000   1.0000   1.0000   1.0000
     1.0000   1.0000   1.0000   1.0000   1.0000   1.0000   1.0000   1.0000
     1.0000   1.0000   1.0000   1.0000   1.0000   1.0000   1.0000   1.0000
     0.9999   0.9999   0.9999   0.9999   0.9999   0.9999   0.9999   0.9999
     0.9999   0.9999   0.9999   0.9999   0.9999   0.9999   0.9999   0.9999
     0.9999   0.9999   0.9999   0.9999   0.9999   0.9999   0.9999   0.9999
     0.9999   0.9999   0.9999   0.9999   0.9999   0.9999   0.9999   0.9999
     0.9999   0.9999   0.9999   0.9999   0.9998   0.9998   0.9998   0.9998
     0.9998   0.9998   0.9998   0.9998   0.9998   0.9998   0.9998   0.9998
     0.9998   0.9998   0.9998   0.9998   0.9997   0.9997   0.9997   0.9997
     0.9997   0.9997   0.9997   0.9997   0.9997   0.9997   0.9997   0.9997
     0.9996   0.9996   0.9996   0.9996   0.9996   0.9996   0.9996   0.9996
     0.9996   0.9996   0.9996   0.9996   0.9996   0.9996   0.9996   0.9996
     0.9996   0.9996   0.9996   0.9996   0.9996   0.9996   0.9996   0.9996
     0.9995   0.9995   0.9995   0.9995   0.9995   0.9995   0.9995   0.9995
     0.9994   0.9994   0.9994   0.9994   0.9993   0.9993   0.9993   0.9993
     0.9992   0.9992   0.9992   0.9992   0.9991   0.9991   0.9991   0.9991
     0.9990   0.9990   0.9990   0.9990   0.9990   0.9990   0.9990   0.9990
     0.9990   0.9990   0.9990   0.9990   0.9990   0.9990   0.9990   0.9989
     0.9989   0.9989   0.9989   0.9989   0.9989   0.9989   0.9989   0.9989
     0.9986   0.9986   0.9986   0.9986   0.9986   0.9986   0.9986   0.9986
     0.9985   0.9985   0.9985   0.9985   0.9983   0.9983   0.9983   0.9983
     0.9983   0.9983   0.9983   0.9983   0.9980   0.9980   0.9980   0.9980
     0.9980   0.9980   0.9979   0.9979   0.9979   0.9979   0.9979   0.9979
     0.9979   0.9979   0.9979   0.9979   0.9978   0.9978   0.9978   0.9978
     0.9977   0.9977   0.9977   0.9977   0.9971   0.9971   0.9971   0.9971
     0.9970   0.9970   0.9970   0.9970   0.9970   0.9970   0.9970   0.9970
     0.9968   0.9968   0.9968   0.9968   0.9966   0.9966   0.9966   0.9966
     0.9965   0.9965   0.9965   0.9965   0.9959   0.9959   0.9959   0.9959
     0.9956   0.9955   0.9955   0.9955   0.9953   0.9953   0.9953   0.9953
     0.9951   0.9951   0.9951   0.9951   0.9947   0.9947   0.9946   0.9946
     0.9937   0.9937   0.9937   0.9937   0.9931   0.9931   0.9931   0.9931
     0.9920   0.9920   0.9920   0.9919   0.9917   0.9917   0.9917   0.9916
[...]
     0.1769   0.1768   0.1763   0.1763   0.1596   0.1596   0.1578   0.1578
     0.1033   0.1033   0.1029   0.1029   0.0956   0.0955   0.0953   0.0952
     0.0546   0.0545   0.0543   0.0543   0.0376   0.0376   0.0353   0.0353
     0.0282   0.0282   0.0279   0.0279   0.0211   0.0211   0.0203   0.0202
     0.0196   0.0196   0.0195   0.0194   0.0068   0.0068   0.0068   0.0068
     0.0061   0.0061   0.0061   0.0061   0.0045   0.0045   0.0045   0.0044
     0.0002   0.0002   0.0002   0.0002   0.0000   0.0000   0.0000   0.0000
     0.0000   0.0000   0.0000   0.0000   0.0000   0.0000   0.0000   0.0000
     0.0000   0.0000   0.0000   0.0000   0.0000   0.0000   0.0000   0.0000
     0.0000   0.0000   0.0000   0.0000   0.0000   0.0000   0.0000   0.0000
     0.0000   0.0000   0.0000   0.0000   0.0000   0.0000   0.0000   0.0000
     0.0000   0.0000   0.0000   0.0000   0.0000   0.0000   0.0000   0.0000
     0.0000   0.0000   0.0000   0.0000   0.0000   0.0000   0.0000   0.0000
     0.0000   0.0000   0.0000   0.0000   0.0000   0.0000   0.0000   0.0000
     0.0000   0.0000   0.0000   0.0000   0.0000   0.0000   0.0000

     the Fermi energy is     3.6473 ev

!    total energy              =  -12698.89117156 Ry
     Harris-Foulkes estimate   =  -12698.89117155 Ry
     estimated scf accuracy    <          1.6E-09 Ry

     The total energy is the sum of the following terms:

     one-electron contribution = -109279.19727547 Ry
     hartree contribution      =   56016.96591795 Ry
     xc contribution           =   -4447.11627173 Ry
     ewald contribution        =   45016.76625785 Ry
     Dispersion Correction     =      -2.98700982 Ry
     smearing contrib. (-TS)   =      -3.32279034 Ry

     convergence has been achieved in  43 iterations

     Writing output data file gc.save

     General routines

     Parallel routines

   This run was terminated on:  19:59:11  27Apr2017

   JOB DONE.