     Program PWSCF v.5.4.0 starts on 16Sep2017 at 17:39:14

     Current dimensions of program PWSCF are:
     Max number of different atomic species (ntypx) = 10
     Max number of k-points (npk) =  40000
     Max angular momentum in pseudopotentials (lmaxx) =  3
     WARNING: atomic wfc #  2 for atom type 4 has zero norm
     WARNING: atomic wfc #  4 for atom type 4 has zero norm
     WARNING: atomic wfc #  5 for atom type 4 has zero norm

     Parameters for Dispersion Correction:
       atom      VdW radius       C_6

        Cu         2.952        374.666
        C_h        2.744         60.710
        C          2.744         60.710
        O          2.536         24.284

     bravais-lattice index     =            0
     lattice parameter (alat)  =      13.9425  a.u.
     unit-cell volume          =   21209.0878 (a.u.)^3
     number of atoms/cell      =          151
     number of atomic types    =            4
     number of electrons       =      1308.00
     number of Kohn-Sham states=          785
     kinetic-energy cutoff     =      80.0000  Ry
     charge density cutoff     =     320.0000  Ry
     convergence threshold     =      1.0E-08
     mixing beta               =       0.7000
     number of iterations used =            8  local-TF  mixing
     Exchange-correlation      =  SLA  PW   PBX  PBC ( 1  4  3  4 0 0)

     celldm(1)=  13.942539  celldm(2)=   0.000000  celldm(3)=   0.000000
     celldm(4)=   0.000000  celldm(5)=   0.000000  celldm(6)=   0.000000

     crystal axes: (cart. coord. in units of alat)
               a(1) = (   1.000000   0.000000   0.000000 )
               a(2) = (   0.000000   2.309401   0.000000 )
               a(3) = (   0.000000   0.000000   3.388418 )

     reciprocal axes: (cart. coord. in units 2 pi/alat)
               b(1) = (  1.000000  0.000000  0.000000 )
               b(2) = (  0.000000  0.433013  0.000000 )
               b(3) = (  0.000000  0.000000  0.295123 )

     PseudoPot. # 1 for Cu read from file:
     /home/549/hxw549/Short/pseudopotentials/Cu.pbe-n-van_ak.UPF
     MD5 check sum: 601f7c30f7467666bec936e0661ce3e1
     Pseudo is Ultrasoft + core correction, Zval = 11.0
     Generated by new atomic code, or converted to UPF format
     Using radial grid of  867 points,  6 beta functions with:
                l(1) =   0
                l(2) =   0
                l(3) =   1
                l(4) =   1
                l(5) =   2
                l(6) =   2
     Q(r) pseudized with  8 coefficients,  rinner =    1.400   1.400   1.400
                                                       1.400   1.400

     PseudoPot. # 2 for C  read from file:
     /home/549/hxw549/Short/pseudopotentials/C.star1s-pbe-mt_gipaw.UPF
     MD5 check sum: ef0cb3dee31bd9e4ba2a832a2c716264
     Pseudo is Norm-conserving, Zval =  5.0
     Generated by new atomic code, or converted to UPF format
     Using radial grid of 1073 points,  1 beta functions with:
                l(1) =   0

     PseudoPot. # 3 for C  read from file:
     /home/549/hxw549/Short/pseudopotentials/C.pbe-mt_gipaw.UPF
     MD5 check sum: 5ac2f21f2c440b14befe521540822c15
     Pseudo is Norm-conserving, Zval =  4.0
     Generated by new atomic code, or converted to UPF format
     Using radial grid of 1073 points,  1 beta functions with:
                l(1) =   0

     PseudoPot. # 4 for O  read from file:
     /home/549/hxw549/Short/pseudopotentials/O.pbe-van_gipaw.UPF
     MD5 check sum: 5ce2a047509d4f331db576c963e74b29
     Pseudo is Ultrasoft, Zval =  6.0
     Generated by new atomic code, or converted to UPF format
     Using radial grid of 1095 points,  4 beta functions with:
                l(1) =   0
                l(2) =   0
                l(3) =   1
                l(4) =   1
     Q(r) pseudized with 0 coefficients

     atomic species   valence    mass     pseudopotential
        Cu            11.00    63.54600     Cu( 1.00)
        C_h            5.00    12.01070     C ( 1.00)
        C              4.00    12.01070     C ( 1.00)
        O              6.00    15.99940     O ( 1.00)

     No symmetry found

   Cartesian axes

     site n.     atom                  positions (alat units)
         1           Cu  tau(   1) = (   0.0008573  -0.0018351   0.9978221  )
         2           Cu  tau(   2) = (   0.2509084   0.2265501   0.9988819  )
         3           Cu  tau(   3) = (   0.5008508  -0.0019840   0.9975683  )
         4           Cu  tau(   4) = (   0.7507462   0.2262783   0.9983867  )
         5           Cu  tau(   5) = (   0.0009226   0.4569115   0.9995359  )
         6           Cu  tau(   6) = (   0.2509466   0.6897606   1.0003884  )
         7           Cu  tau(   7) = (   0.5007722   0.4569051   0.9997958  )
         8           Cu  tau(   8) = (   0.7508337   0.6899314   1.0007366  )
         9           Cu  tau(   9) = (   0.0008211   0.9242436   1.0005631  )
        10           Cu  tau(  10) = (   0.2510407   1.1587939   0.9997695  )
        11           Cu  tau(  11) = (   0.5010675   0.9243093   1.0009642  )
        12           Cu  tau(  12) = (   0.7507832   1.1585479   1.0002867  )
        13           Cu  tau(  13) = (   0.0008076   1.3920149   0.9981651  )
        14           Cu  tau(  14) = (   0.2508641   1.6229259   0.9968872  )
        15           Cu  tau(  15) = (   0.5009303   1.3917396   0.9986134  )
        16           Cu  tau(  16) = (   0.7508151   1.6234999   0.9965118  )
        17           Cu  tau(  17) = (   0.0010768   1.8521250   0.9962205  )
        18           Cu  tau(  18) = (   0.2506674   2.0802054   0.9970792  )
        19           Cu  tau(  19) = (   0.5006451   1.8527931   0.9957352  )
        20           Cu  tau(  20) = (   0.7510969   2.0800373   0.9962109  )
        21           Cu  tau(  21) = (   0.0009471   0.2250132   1.2487253  )
        22           Cu  tau(  22) = (   0.2507882  -0.0031446   1.2497440  )
        23           Cu  tau(  23) = (   0.5007919   0.2252728   1.2491714  )
        24           Cu  tau(  24) = (   0.7507971  -0.0036897   1.2491278  )
        25           Cu  tau(  25) = (   0.0012713   0.6893980   1.2461710  )
        26           Cu  tau(  26) = (   0.2511689   0.4560768   1.2478036  )
        27           Cu  tau(  27) = (   0.5013541   0.6891833   1.2462003  )
        28           Cu  tau(  28) = (   0.7508430   0.4560683   1.2474521  )
        29           Cu  tau(  29) = (   0.0015975   1.1598104   1.2452581  )
        30           Cu  tau(  30) = (   0.2511932   0.9245903   1.2453945  )
        31           Cu  tau(  31) = (   0.5012471   1.1599306   1.2456365  )
        32           Cu  tau(  32) = (   0.7516486   0.9243255   1.2458244  )
        33           Cu  tau(  33) = (   0.0010131   1.6253539   1.2462781  )
        34           Cu  tau(  34) = (   0.2511431   1.3937977   1.2457308  )
        35           Cu  tau(  35) = (   0.5008404   1.6254812   1.2457260  )
        36           Cu  tau(  36) = (   0.7511009   1.3943200   1.2451525  )
        37           Cu  tau(  37) = (   0.0008426   2.0793482   1.2491166  )
        38           Cu  tau(  38) = (   0.2507133   1.8534255   1.2477591  )
        39           Cu  tau(  39) = (   0.5006933   2.0795606   1.2489990  )
        40           Cu  tau(  40) = (   0.7509172   1.8537366   1.2472554  )
        41           Cu  tau(  41) = (   0.0008611  -0.0043987   1.5029302  )
        42           Cu  tau(  42) = (   0.2512449   0.2256642   1.5010773  )
        43           Cu  tau(  43) = (   0.5006184  -0.0040937   1.5031608  )
        44           Cu  tau(  44) = (   0.7506508   0.2245354   1.4992095  )
        45           Cu  tau(  45) = (   0.0016362   0.4566646   1.4959563  )
        46           Cu  tau(  46) = (   0.2523890   0.6905661   1.4930847  )
        47           Cu  tau(  47) = (   0.5011624   0.4575926   1.4977523  )
        48           Cu  tau(  48) = (   0.7518349   0.6902421   1.4941960  )
        49           Cu  tau(  49) = (   0.0023347   0.9247476   1.4925255  )
        50           Cu  tau(  50) = (   0.2526869   1.1599081   1.4923416  )
        51           Cu  tau(  51) = (   0.5020293   0.9246479   1.4907170  )
        52           Cu  tau(  52) = (   0.7523795   1.1609499   1.4907313  )
        53           Cu  tau(  53) = (   0.0022775   1.3952011   1.4935895  )
        54           Cu  tau(  54) = (   0.2511571   1.6262829   1.4978436  )
        55           Cu  tau(  55) = (   0.5013820   1.3947667   1.4939515  )
        56           Cu  tau(  56) = (   0.7512738   1.6266946   1.4968330  )
        57           Cu  tau(  57) = (   0.0008850   1.8536557   1.5027652  )
        58           Cu  tau(  58) = (   0.2508739   2.0790658   1.5048008  )
        59           Cu  tau(  59) = (   0.5008476   1.8533228   1.5022434  )
        60           Cu  tau(  60) = (   0.7505503   2.0787726   1.5044290  )
[...]
       134           C   tau( 134) = (   0.6680338   1.4454475   2.5275663  )
       135           C   tau( 135) = (   0.8346856   1.1586075   2.5821647  )
       136           C   tau( 136) = (   0.8345324   1.5411140   2.5071397  )
       137           C   tau( 137) = (   0.0010460   1.8278692   2.4511787  )
       138           C   tau( 138) = (   0.0010317   2.0217261   2.4342541  )
       139           C   tau( 139) = (   0.1678685   1.7310290   2.4663119  )
       140           C   tau( 140) = (   0.1675627   2.1197405   2.4349419  )
       141           C   tau( 141) = (   0.3343157   1.8275601   2.4502918  )
       142           C   tau( 142) = (   0.3343711   2.0217622   2.4360008  )
       143           C   tau( 143) = (   0.5010915   1.7307980   2.4646800  )
       144           C   tau( 144) = (   0.5010073   2.1196324   2.4373775  )
       145           C   tau( 145) = (   0.6676447   1.8274733   2.4494839  )
       146           C   tau( 146) = (   0.6675343   2.0216639   2.4345855  )
       147           C   tau( 147) = (   0.8343141   1.7313514   2.4669788  )
       148           C   tau( 148) = (   0.8342927   2.1195700   2.4359499  )
       149           C_h tau( 149) = (   0.3364713   0.8554695   2.3059262  )
       150           O   tau( 150) = (   0.4663307   0.9439922   2.2440879  )
       151           O   tau( 151) = (   0.2156522   0.7576010   2.2397108  )

     number of k points=     6  gaussian smearing, width (Ry)=  0.1000
                       cart. coord. in units 2pi/alat
        k(    1) = (   0.0000000   0.0000000   0.0000000), wk =   0.2500000
        k(    2) = (   0.0000000  -0.2165064   0.0000000), wk =   0.2500000
        k(    3) = (   0.2500000   0.0000000   0.0000000), wk =   0.5000000
        k(    4) = (   0.2500000  -0.2165064   0.0000000), wk =   0.5000000
        k(    5) = (  -0.5000000   0.0000000   0.0000000), wk =   0.2500000
        k(    6) = (  -0.5000000  -0.2165064   0.0000000), wk =   0.2500000

     Largest allocated arrays     est. size (Mb)     dimensions
     Largest temporary arrays     est. size (Mb)     dimensions

     Initial potential from superposition of free atoms
     Check: negative starting charge=   -0.001494

     starting charge 1282.31751, renormalised to 1308.00000

     negative rho (up, down):  1.524E-03 0.000E+00
     Starting wfc are 1300 randomized atomic wfcs

     Self-consistent Calculation

     iteration #  1     ecut=    80.00 Ry     beta=0.70
     Davidson diagonalization with overlap
     c_bands:  5 eigenvalues not converged
     c_bands:  4 eigenvalues not converged
     c_bands:  5 eigenvalues not converged
     ethr =  1.00E-04,  avg # of iterations = 45.5

     negative rho (up, down):  2.382E+01 0.000E+00

     total energy              =  -10109.09038486 Ry
     Harris-Foulkes estimate   =  -18212.95979545 Ry
     estimated scf accuracy    <  210041.19275045 Ry

     iteration #  2     ecut=    80.00 Ry     beta=0.70
     Davidson diagonalization with overlap
     ethr =  1.00E-02,  avg # of iterations = 13.8

[...]

     iteration # 35     ecut=    80.00 Ry     beta=0.70
     Davidson diagonalization with overlap
     c_bands:  1 eigenvalues not converged
     ethr =  3.40E-08,  avg # of iterations = 12.5

[...]

     total energy              =  -12781.91183780 Ry
     Harris-Foulkes estimate   =  -12781.91183780 Ry
     estimated scf accuracy    <       0.00000001 Ry

     iteration # 45     ecut=    80.00 Ry     beta=0.70
     Davidson diagonalization with overlap
     ethr =  9.54E-13,  avg # of iterations =  2.8

     negative rho (up, down):  1.659E-03 0.000E+00

     End of self-consistent calculation

          k = 0.0000 0.0000 0.0000 (256287 PWs)   bands (ev):

   -22.0701 -19.7116 -15.9101 -15.5592 -15.5211 -14.4659 -14.4549 -13.9494
   -13.9411 -13.6151 -13.5965 -13.5674 -13.5627 -12.7174 -12.6981 -12.5547
   -12.5493 -12.5388 -12.5268 -10.9084 -10.8976 -10.8895 -10.8809 -10.8108
    -9.6384  -9.1302  -9.1183  -8.9567  -8.9346  -8.2138  -8.0802  -8.0575
    -8.0542  -7.8923  -7.2191  -7.2077  -7.0270  -7.0214  -7.0143  -7.0079
    -6.9818  -6.9775  -6.4576  -5.9409  -5.8282  -5.5752  -5.5163  -5.4882
    -5.4655  -5.4454  -5.4077  -5.4014  -5.3976  -5.3821  -5.3608  -5.3023
    -4.8284  -4.3258  -4.3200  -4.2644  -4.2576  -4.0984  -4.0241  -3.9903
    -3.9100  -3.9072  -3.6101  -3.4195  -3.3308  -3.3277  -3.1799  -3.1722
    -3.1675  -3.1621  -3.1507  -2.9501  -2.9457  -2.9402  -2.9344  -2.9289
    -2.9258  -2.9080  -2.9048  -2.7905  -2.7647  -2.7025  -2.4708  -2.4460
    -2.4437  -2.4324  -2.4275  -2.3559  -2.3284  -2.3175  -2.3104  -2.2859
    -2.2266  -2.2250  -2.2212  -2.2176  -2.1274  -2.1243  -2.0965  -2.0943
    -2.0908  -2.0897  -1.9616  -1.9603  -1.9574  -1.9516  -1.9324  -1.9116
    -1.8368  -1.7951  -1.7432  -1.7198  -1.6855  -1.6769  -1.6734  -1.6732
    -1.6589  -1.6570  -1.6363  -1.6206  -1.5976  -1.5847  -1.5748  -1.5585
    -1.5340  -1.5282  -1.5166  -1.5103  -1.5025  -1.4911  -1.4720  -1.4677
    -1.4631  -1.4598  -1.4543  -1.4414  -1.3951  -1.3900  -1.3795  -1.3651
    -1.3533  -1.2976  -1.2765  -1.2453  -1.2403  -1.2333  -1.2280  -1.2261
    -1.2040  -1.2006  -1.1830  -1.1588  -1.1523  -1.1382  -1.1318  -1.1157
    -1.0971  -1.0685  -1.0400  -1.0125  -0.9971  -0.9954  -0.9928  -0.9907
    -0.9846  -0.9793  -0.9727  -0.9705  -0.9664  -0.9623  -0.9602  -0.9566
    -0.9462  -0.9459  -0.9412  -0.9368  -0.9330  -0.9190  -0.8910  -0.8855
    -0.8815  -0.8599  -0.8566  -0.8536  -0.8462  -0.8179  -0.8124  -0.8028
    -0.8006  -0.7987  -0.7976  -0.7954  -0.7931  -0.7930  -0.7884  -0.7857
    -0.7832  -0.7825  -0.7815  -0.7806  -0.7734  -0.7720  -0.7083  -0.6350
    -0.6312  -0.6300  -0.6262  -0.5988  -0.5922  -0.5889  -0.5790  -0.5754
    -0.5650  -0.5621  -0.5606  -0.5560  -0.5477  -0.5391  -0.5336  -0.5122
    -0.5106  -0.5036  -0.5015  -0.4941  -0.4900  -0.4859  -0.4822  -0.4334
    -0.4294  -0.4273  -0.3989  -0.3889  -0.3861  -0.3789  -0.3725  -0.3665
    -0.3632  -0.3607  -0.3592  -0.3544  -0.3538  -0.3505  -0.3484  -0.3468
    -0.3443  -0.3401  -0.3359  -0.3287  -0.3261  -0.3095  -0.2994  -0.2877
    -0.2832  -0.2788  -0.2580  -0.2495  -0.2427  -0.2404  -0.2356  -0.2338
    -0.2316  -0.2304  -0.2128  -0.2115  -0.2106  -0.2049  -0.1988  -0.1974
    -0.1947  -0.1925  -0.1921  -0.1847  -0.1832  -0.1778  -0.1718  -0.1681
    -0.1623  -0.1573  -0.1554  -0.1452  -0.1424  -0.1377  -0.1342  -0.1310
    -0.1286  -0.1202  -0.1133  -0.0901  -0.0836  -0.0776  -0.0724  -0.0653
    -0.0634  -0.0375  -0.0315  -0.0245  -0.0143  -0.0066  -0.0025  -0.0013
     0.0006   0.0062   0.0108   0.0155   0.0228   0.0370   0.0379   0.0452
     0.0502   0.0535   0.0581   0.0659   0.0735   0.0767   0.0912   0.0922
     0.0958   0.0982   0.1031   0.1098   0.1110   0.1119   0.1159   0.1184
     0.1237   0.1383   0.1436   0.1551   0.1571   0.1636   0.1723   0.1862
     0.1871   0.2100   0.2149   0.2172   0.2201   0.2314   0.2376   0.2493
     0.2620   0.2679   0.2903   0.2961   0.3029   0.3143   0.3221   0.3344
     0.3415   0.3427   0.3436   0.3460   0.3541   0.3568   0.3824   0.3852
     0.4039   0.4081   0.4106   0.4118   0.4212   0.4255   0.4292   0.4355
     0.4390   0.4432   0.4481   0.4672   0.4698   0.4759   0.4825   0.4881
     0.5021   0.5038   0.5122   0.5146   0.5202   0.5248   0.5297   0.5319
     0.5459   0.5492   0.5575   0.5618   0.5684   0.5746   0.5801   0.5822
     0.5838   0.5884   0.5983   0.6009   0.6019   0.6035   0.6043   0.6083
     0.6103   0.6122   0.6203   0.6211   0.6233   0.6288   0.6456   0.6500
     0.6531   0.6571   0.6754   0.6820   0.6875   0.6881   0.6967   0.7001
     0.7034   0.7104   0.7112   0.7165   0.7242   0.7257   0.7272   0.7286
     0.7296   0.7308   0.7366   0.7433   0.7468   0.7616   0.7633   0.7709
     0.7724   0.7742   0.7765   0.7874   0.7875   0.7878   0.7909   0.7980
     0.8054   0.8104   0.8109   0.8127   0.8223   0.8272   0.8445   0.8569
     0.8618   0.8631   0.8715   0.8799   0.8898   0.8965   0.9015   0.9033
     0.9116   0.9132   0.9183   0.9201   0.9338   0.9353   0.9367   0.9407
     0.9436   0.9551   0.9634   0.9677   0.9686   0.9711   0.9758   0.9777
     0.9828   0.9839   0.9851   0.9890   0.9898   1.0086   1.0291   1.0292
[...]
     4.0224   4.0351   4.0455   4.0529   4.0619   4.1118   4.1740   4.1940
     4.2134   4.3653   4.5098   4.6296   4.8192   5.0855   5.2104   5.3482
     5.3652   5.3716   5.3840   5.3901   5.4242   5.5562   5.6460   5.6619
     5.8209   5.9346   5.9685   5.9858   6.2343   6.2384   6.4053   6.4099
     6.4730   6.5129   6.5342   6.5527   6.6901   6.7148   6.7738   6.7939
     6.9638   6.9684   6.9795   7.0076   7.1263   7.1446   7.1862   7.1909
     7.2145   7.2306   7.2796   7.3120   7.4103   7.4371   7.4873   7.5817
     7.6776   7.7050   7.7169   7.7860   7.8424   8.1250   8.1301   8.1585
     8.1707   8.1880   8.2038   8.2256   8.3477   8.3557   8.3653   8.3799
     8.3849   8.5204   8.5327   8.5913   8.6043   8.6122   8.6615   8.6844
     8.8053   8.8180   8.8507   8.8608   8.8631   8.8700   8.8817   8.8987
     8.9249   8.9928   9.0490   9.0675   9.1253   9.1320   9.2604   9.3095
     9.3690   9.4348   9.4964   9.5533   9.5957   9.6208   9.6478   9.6771
     9.6854   9.7978   9.8181   9.8771  10.0884  10.0887  10.2226  10.2491
    10.2509

[...]

          k = 0.2500-0.2165 0.0000 (256316 PWs)   bands (ev):

[...]

          k =-0.5000 0.0000 0.0000 (256496 PWs)   bands (ev):

[...]

          k =-0.5000-0.2165 0.0000 (256328 PWs)   bands (ev):

   -22.0701 -19.7117 -15.3487 -15.3481 -15.3084 -15.2770 -14.6135 -14.5982
   -14.5945 -14.5828 -13.2001 -13.1856 -13.1810 -13.1731 -11.5317 -11.5311
   -11.4981 -11.4688 -11.2004 -11.1925 -11.1807 -11.1622 -10.9228 -10.9108
   -10.8949 -10.8834  -9.2663  -9.2546  -9.2304  -9.2016  -8.3848  -8.3315
    -8.3267  -8.3013  -7.9787  -7.5966  -7.5943  -7.5538  -7.5357  -6.4742
    -5.8316  -5.5779  -5.5365  -5.5258  -5.4829  -5.4102  -5.1079  -5.1040
    -5.0969  -5.0879  -4.8671  -4.8607  -4.8244  -4.8092  -4.5308  -4.5264
    -4.4710  -4.4527  -4.1256  -4.1248  -4.1194  -4.1137  -4.0727  -4.0694
    -4.0119  -3.9947  -3.6951  -3.6837  -3.6762  -3.6716  -3.5139  -3.5101
    -3.3755  -3.3020  -3.2962  -3.2411  -3.2289  -3.2149  -3.1999  -3.1940
    -3.1825  -3.1763  -3.1655  -3.1578  -3.1541  -3.0931  -2.6427  -2.6023
    -2.5861  -2.5185  -2.5161  -2.5137  -2.5118  -2.4977  -2.4855  -2.4705
    -2.4674  -2.3351  -2.0135  -2.0117  -2.0113  -2.0090  -2.0058  -1.9978
    -1.9975  -1.9615  -1.9596  -1.9475  -1.9366  -1.9328  -1.7526  -1.7452
    -1.7419  -1.7386  -1.6164  -1.5976  -1.5935  -1.5662  -1.5570  -1.5420
    -1.5341  -1.5289  -1.5165  -1.4700  -1.4426  -1.4381  -1.4358  -1.4337
    -1.4320  -1.4295  -1.4076  -1.3955  -1.3829  -1.3806  -1.3704  -1.3689
    -1.3398  -1.3301  -1.3267  -1.3234  -1.3193  -1.3162  -1.3135  -1.3126
    -1.3030  -1.3012  -1.3008  -1.2990  -1.2544  -1.2529  -1.2273  -1.2152
    -1.2044  -1.2004  -1.1854  -1.1688  -1.1507  -1.1475  -1.1307  -1.1270
    -1.1155  -1.1058  -1.0962  -1.0934  -1.0917  -1.0866  -1.0862  -1.0783
    -1.0759  -1.0740  -1.0705  -1.0626  -1.0592  -1.0578  -1.0550  -1.0337
    -1.0154  -1.0120  -1.0030  -0.9977  -0.9893  -0.9862  -0.9780  -0.9766
    -0.9726  -0.9699  -0.9675  -0.9603  -0.9508  -0.9083  -0.8952  -0.8324
    -0.8142  -0.8129  -0.8108  -0.8081  -0.8015  -0.7980  -0.7967  -0.7910
    -0.7263  -0.7218  -0.7173  -0.7151  -0.7115  -0.7025  -0.7016  -0.6985
    -0.6981  -0.6962  -0.6904  -0.6854  -0.6834  -0.6783  -0.6467  -0.6458
    -0.6433  -0.6414  -0.6410  -0.6300  -0.6251  -0.6199  -0.6188  -0.6153
    -0.6122  -0.5908  -0.5801  -0.5775  -0.5041  -0.5023  -0.4986  -0.4903
    -0.4821  -0.4817  -0.4807  -0.4682  -0.4441  -0.4395  -0.4388  -0.4372
    -0.3956  -0.3947  -0.3929  -0.3893  -0.3763  -0.3725  -0.3704  -0.3661
    -0.3453  -0.3436  -0.3358  -0.3339  -0.3240  -0.3190  -0.3112  -0.3048
    -0.2695  -0.2576  -0.2462  -0.2410  -0.2360  -0.2326  -0.2194  -0.2141
    -0.2042  -0.2034  -0.1987  -0.1980  -0.1881  -0.1857  -0.1809  -0.1765
    -0.1288  -0.1234  -0.1222  -0.1193  -0.1123  -0.1116  -0.1101  -0.1085
    -0.0987  -0.0960  -0.0920  -0.0911  -0.0755  -0.0739  -0.0712  -0.0705
    -0.0580  -0.0503  -0.0459  -0.0437  -0.0407  -0.0385  -0.0375  -0.0350
     0.0131   0.0144   0.0220   0.0274   0.0283   0.0362   0.0696   0.0777
     0.0861   0.0888   0.0990   0.1027   0.1045   0.1050   0.1084   0.1097
     0.1185   0.1211   0.1257   0.1337   0.1387   0.1419   0.1463   0.1503
     0.1516   0.1527   0.1557   0.1612   0.1618   0.1644   0.1663   0.1671
     0.1691   0.1706   0.1714   0.1789   0.1954   0.1981   0.2015   0.2092
     0.2131   0.2211   0.2242   0.2253   0.2477   0.2517   0.2543   0.2547
     0.2591   0.2668   0.2689   0.2847   0.2875   0.2960   0.2983   0.3006
     0.3037   0.3382   0.3523   0.3670   0.3701   0.3751   0.3785   0.3899
     0.3917   0.4042   0.4070   0.4158   0.4187   0.4269   0.4308   0.4431
     0.4444   0.4478   0.4509   0.4544   0.4563   0.4855   0.4912   0.4967
     0.5053   0.5087   0.5096   0.5117   0.5135   0.5147   0.5172   0.5174
     0.5191   0.5208   0.5298   0.5379   0.5430   0.5498   0.5507   0.5576
     0.5609   0.5633   0.5678   0.5847   0.5874   0.5902   0.5959   0.6001
     0.6037   0.6088   0.6181   0.6193   0.6252   0.6262   0.6274   0.6313
     0.6338   0.6437   0.6497   0.6555   0.6579   0.6607   0.6663   0.6706
     0.6713   0.6736   0.6793   0.6843   0.6927   0.6959   0.6984   0.7146
     0.7187   0.7222   0.7245   0.7266   0.7300   0.7329   0.7383   0.7427
     0.7441   0.7535   0.7552   0.7723   0.7745   0.7754   0.7773   0.7783
     0.7826   0.7862   0.7881   0.7916   0.7943   0.7970   0.8025   0.8263
     0.8279   0.8319   0.8341   0.8563   0.8566   0.8626   0.8683   0.8856
     0.8956   0.9021   0.9086   0.9116   0.9135   0.9168   0.9175   0.9226
     0.9478   0.9650   0.9680   0.9740   0.9764   0.9813   0.9825   0.9915
     1.0065   1.0172   1.0215   1.0224   1.0244   1.0311   1.0356   1.0406
[...]
     4.3226   4.4089   4.5423   4.5809   4.6210   4.7048   4.7170   4.7234
     4.7469   4.8026   5.0897   5.0963   5.1557   5.1605   5.1777   5.1913
     5.2367   5.2410   5.2649   5.2995   5.3054   5.3342   5.3735   5.4024
     5.4283   5.4800   5.5489   5.5683   5.6370   5.6414   5.6455   5.7595
     5.7743   5.7801   5.7876   5.8082   5.8278   6.0094   6.0179   6.0818
     6.1056   6.3564   6.7116   6.7238   6.9608   6.9719   7.0443   7.0471
     7.0901   7.1127   7.1185   7.1194   7.1417   7.1558   7.1663   7.1996
     7.2695   7.2768   7.3853   7.4060   7.4222   7.4255   7.4958   7.5056
     7.6520   7.7822   7.9088   7.9352   8.1059   8.1515   8.1760   8.2415
     8.3253   8.3281   8.3452   8.3980   8.4391   8.4420   8.4568   8.4912
     8.5209   8.5646   8.8585   8.8732   8.8760   8.8839   8.9404   8.9456
     8.9540   8.9754   8.9946   9.0250   9.0539   9.0689   9.1390   9.1402
     9.1790   9.1863   9.4103   9.4188   9.4263   9.4373   9.4593   9.4691
     9.4732   9.4832   9.4897   9.5620   9.7274   9.7432   9.9487  10.0174
    10.0404

     the Fermi energy is     3.3591 ev

!    total energy              =  -12781.91183784 Ry
     Harris-Foulkes estimate   =  -12781.91183780 Ry
     estimated scf accuracy    <          4.9E-09 Ry

     The total energy is the sum of the following terms:

     one-electron contribution = -100736.28745962 Ry
     hartree contribution      =   51741.45460315 Ry
     xc contribution           =   -4463.87590039 Ry
     ewald contribution        =   40683.01455584 Ry
     Dispersion Correction     =      -2.81437964 Ry
     smearing contrib. (-TS)   =      -3.40325718 Ry

     convergence has been achieved in  45 iterations

     Writing output data file gc.save

     General routines

     Parallel routines

   This run was terminated on:   1:24: 4  17Sep2017

   JOB DONE.