     Program PWSCF v.5.4.0 starts on  9Apr2017 at 10:40:44

     Current dimensions of program PWSCF are:
     Max number of different atomic species (ntypx) = 10
     Max number of k-points (npk) =  40000
     Max angular momentum in pseudopotentials (lmaxx) =  3
     WARNING: atomic wfc #  2 for atom type 4 has zero norm
     WARNING: atomic wfc #  4 for atom type 4 has zero norm
     WARNING: atomic wfc #  5 for atom type 4 has zero norm

     Parameters for Dispersion Correction:
       atom      VdW radius       C_6

        Cu         2.952        374.666
        C_h        2.744         60.710
        C          2.744         60.710
        O          2.536         24.284

     Generating pointlists ...
     new r_m :   0.1382 (alat units)  1.9275 (a.u.) for type    1
     new r_m :   0.0787 (alat units)  1.0967 (a.u.) for type    2
     new r_m :   0.0786 (alat units)  1.0964 (a.u.) for type    3
     new r_m :   0.0791 (alat units)  1.1028 (a.u.) for type    4

     bravais-lattice index     =            0
     lattice parameter (alat)  =      13.9425  a.u.
     unit-cell volume          =   21209.0878 (a.u.)^3
     number of atoms/cell      =          149
     number of atomic types    =            4
     number of electrons       =      1298.00
     number of Kohn-Sham states=          779
     kinetic-energy cutoff     =      80.0000  Ry
     charge density cutoff     =     320.0000  Ry
     convergence threshold     =      1.0E-08
     mixing beta               =       0.7000
     number of iterations used =            8  local-TF  mixing
     Exchange-correlation      =  SLA  PW   PBX  PBC ( 1  4  3  4 0 0)

     celldm(1)=  13.942539  celldm(2)=   0.000000  celldm(3)=   0.000000
     celldm(4)=   0.000000  celldm(5)=   0.000000  celldm(6)=   0.000000

     crystal axes: (cart. coord. in units of alat)
               a(1) = (   1.000000   0.000000   0.000000 )
               a(2) = (   0.000000   2.309401   0.000000 )
               a(3) = (   0.000000   0.000000   3.388418 )

     reciprocal axes: (cart. coord. in units 2 pi/alat)
               b(1) = (  1.000000  0.000000  0.000000 )
               b(2) = (  0.000000  0.433013  0.000000 )
               b(3) = (  0.000000  0.000000  0.295123 )

     PseudoPot. # 1 for Cu read from file:
     /home/549/hxw549/Short/pseudopotentials/Cu.pbe-n-van_ak.UPF
     MD5 check sum: 601f7c30f7467666bec936e0661ce3e1
     Pseudo is Ultrasoft + core correction, Zval = 11.0
     Generated by new atomic code, or converted to UPF format
     Using radial grid of  867 points,  6 beta functions with:
                l(1) =   0
                l(2) =   0
                l(3) =   1
                l(4) =   1
                l(5) =   2
                l(6) =   2
     Q(r) pseudized with  8 coefficients,  rinner =    1.400   1.400   1.400
                                                       1.400   1.400

     PseudoPot. # 2 for C  read from file:
     /home/549/hxw549/Short/pseudopotentials/C.star1s-pbe-mt_gipaw.UPF
     MD5 check sum: ef0cb3dee31bd9e4ba2a832a2c716264
     Pseudo is Norm-conserving, Zval =  5.0
     Generated by new atomic code, or converted to UPF format
     Using radial grid of 1073 points,  1 beta functions with:
                l(1) =   0

     PseudoPot. # 3 for C  read from file:
     /home/549/hxw549/Short/pseudopotentials/C.pbe-mt_gipaw.UPF
     MD5 check sum: 5ac2f21f2c440b14befe521540822c15
     Pseudo is Norm-conserving, Zval =  4.0
     Generated by new atomic code, or converted to UPF format
     Using radial grid of 1073 points,  1 beta functions with:
                l(1) =   0

     PseudoPot. # 4 for O  read from file:
     /home/549/hxw549/Short/pseudopotentials/O.pbe-van_gipaw.UPF
     MD5 check sum: 5ce2a047509d4f331db576c963e74b29
     Pseudo is Ultrasoft, Zval =  6.0
     Generated by new atomic code, or converted to UPF format
     Using radial grid of 1095 points,  4 beta functions with:
                l(1) =   0
                l(2) =   0
                l(3) =   1
                l(4) =   1
     Q(r) pseudized with 0 coefficients

     atomic species   valence    mass     pseudopotential
        Cu            11.00    63.54600     Cu( 1.00)
        C_h            5.00    12.01070     C ( 1.00)
        C              4.00    12.01070     C ( 1.00)
        O              6.00    15.99940     O ( 1.00)

     Starting magnetic structure
     atomic species   magnetization
        Cu           0.000
        C_h          0.000
        C            0.000
        O            1.000

     No symmetry found

   Cartesian axes

     site n.     atom                  positions (alat units)
         1           Cu  tau(   1) = (   0.0001178   0.0001751   0.9991399  )
         2           Cu  tau(   2) = (   0.2500647   0.2315788   0.9992879  )
         3           Cu  tau(   3) = (   0.5001090   0.0002824   0.9991514  )
         4           Cu  tau(   4) = (   0.7501448   0.2315979   0.9993693  )
         5           Cu  tau(   5) = (   0.0000932   0.4624661   0.9992448  )
         6           Cu  tau(   6) = (   0.2501040   0.6930408   0.9987587  )
         7           Cu  tau(   7) = (   0.5001044   0.4624308   0.9992470  )
         8           Cu  tau(   8) = (   0.7500909   0.6930451   0.9988127  )
         9           Cu  tau(   9) = (   0.0000907   0.9236195   0.9983746  )
        10           Cu  tau(  10) = (   0.2501315   1.1542013   0.9984774  )
        11           Cu  tau(  11) = (   0.5001085   0.9236121   0.9984107  )
        12           Cu  tau(  12) = (   0.7500776   1.1542041   0.9985334  )
        13           Cu  tau(  13) = (   0.0001210   1.3847107   0.9989336  )
        14           Cu  tau(  14) = (   0.2501076   1.6153136   0.9993453  )
        15           Cu  tau(  15) = (   0.5001016   1.3847235   0.9991112  )
        16           Cu  tau(  16) = (   0.7501325   1.6152607   0.9994161  )
        17           Cu  tau(  17) = (   0.0000836   1.8463185   0.9992677  )
        18           Cu  tau(  18) = (   0.2501939   2.0778557   0.9990932  )
        19           Cu  tau(  19) = (   0.5001665   1.8462421   0.9993297  )
        20           Cu  tau(  20) = (   0.7500499   2.0778858   0.9990886  )
        21           Cu  tau(  21) = (   0.0001201   0.2315510   1.2474060  )
        22           Cu  tau(  22) = (   0.2501297   0.0000932   1.2468084  )
        23           Cu  tau(  23) = (   0.5000985   0.2315859   1.2474013  )
        24           Cu  tau(  24) = (   0.7501392   0.0000369   1.2467986  )
        25           Cu  tau(  25) = (   0.0000837   0.6935790   1.2476031  )
        26           Cu  tau(  26) = (   0.2500834   0.4627990   1.2476878  )
        27           Cu  tau(  27) = (   0.5000729   0.6935238   1.2475645  )
        28           Cu  tau(  28) = (   0.7500921   0.4627963   1.2477406  )
        29           Cu  tau(  29) = (   0.0001043   1.1538633   1.2473903  )
        30           Cu  tau(  30) = (   0.2500740   0.9237755   1.2473144  )
        31           Cu  tau(  31) = (   0.5000779   1.1537741   1.2475188  )
        32           Cu  tau(  32) = (   0.7500848   0.9237806   1.2473699  )
        33           Cu  tau(  33) = (   0.0001394   1.6150341   1.2477604  )
        34           Cu  tau(  34) = (   0.2501124   1.3841605   1.2478282  )
        35           Cu  tau(  35) = (   0.5001301   1.6150934   1.2478863  )
        36           Cu  tau(  36) = (   0.7501066   1.3841739   1.2478487  )
        37           Cu  tau(  37) = (   0.0001703   2.0778855   1.2466178  )
        38           Cu  tau(  38) = (   0.2501557   1.8463742   1.2472016  )
        39           Cu  tau(  39) = (   0.5001379   2.0779082   1.2466660  )
        40           Cu  tau(  40) = (   0.7501553   1.8464101   1.2472347  )
        41           Cu  tau(  41) = (   0.0001561  -0.0004210   1.4957109  )
        42           Cu  tau(  42) = (   0.2501545   0.2312899   1.4963241  )
        43           Cu  tau(  43) = (   0.5001223  -0.0003473   1.4956858  )
        44           Cu  tau(  44) = (   0.7500415   0.2311756   1.4962428  )
        45           Cu  tau(  45) = (   0.0000797   0.4629130   1.4969910  )
        46           Cu  tau(  46) = (   0.2500644   0.6939574   1.4977027  )
        47           Cu  tau(  47) = (   0.5000448   0.4629913   1.4971228  )
        48           Cu  tau(  48) = (   0.7500213   0.6939388   1.4976647  )
        49           Cu  tau(  49) = (   0.0000772   0.9240249   1.4981269  )
        50           Cu  tau(  50) = (   0.2500138   1.1533268   1.4981828  )
        51           Cu  tau(  51) = (   0.4999981   0.9236958   1.4981756  )
        52           Cu  tau(  52) = (   0.7500898   1.1534051   1.4980997  )
        53           Cu  tau(  53) = (   0.0000854   1.3837290   1.4977758  )
        54           Cu  tau(  54) = (   0.2500811   1.6151223   1.4969711  )
        55           Cu  tau(  55) = (   0.5000715   1.3836600   1.4977194  )
        56           Cu  tau(  56) = (   0.7501512   1.6151612   1.4969707  )
        57           Cu  tau(  57) = (   0.0001647   1.8467653   1.4961187  )
        58           Cu  tau(  58) = (   0.2501492   2.0780074   1.4956995  )
        59           Cu  tau(  59) = (   0.5001483   1.8469374   1.4962451  )
        60           Cu  tau(  60) = (   0.7501797   2.0780088   1.4957512  )
[...]
       119           C   tau( 119) = (   0.4998391   0.5778621   2.3760650  )
       120           C   tau( 120) = (   0.4996895   0.9621637   2.4356682  )
       121           O   tau( 121) = (   0.4987041   0.9573919   2.6273532  )
       122           C   tau( 122) = (   0.6671796   0.6745385   2.3743426  )
       123           C   tau( 123) = (   0.6688087   0.8654535   2.3800444  )
       124           C   tau( 124) = (   0.8336398   0.5775636   2.3746523  )
       125           C   tau( 125) = (   0.8328414   0.9625091   2.3750327  )
       126           C   tau( 126) = (  -0.0001226   1.2514969   2.3780858  )
       127           C   tau( 127) = (  -0.0000580   1.4446335   2.3767340  )
       128           C   tau( 128) = (   0.1665618   1.1557680   2.3784869  )
       129           C   tau( 129) = (   0.1667114   1.5410833   2.3789669  )
       130           C   tau( 130) = (   0.3338787   1.2526757   2.3819609  )
       131           C   tau( 131) = (   0.3334272   1.4452607   2.3812252  )
       132           C   tau( 132) = (   0.4998303   1.1589812   2.3878147  )
       133           C   tau( 133) = (   0.4999354   1.5412396   2.3843628  )
       134           C_h tau( 134) = (   0.6658220   1.2526489   2.3820371  )
       135           C   tau( 135) = (   0.6664446   1.4452600   2.3811871  )
       136           C   tau( 136) = (   0.8331461   1.1557891   2.3786206  )
       137           C   tau( 137) = (   0.8331791   1.5411000   2.3788400  )
       138           C   tau( 138) = (   0.0000179   1.8297592   2.3820829  )
       139           C   tau( 139) = (   0.0000276   2.0220587   2.3867410  )
       140           C   tau( 140) = (   0.1668445   1.7334918   2.3820555  )
       141           C   tau( 141) = (   0.1666563   2.1181397   2.3871975  )
[...]
     atom:   20    charge:    9.5912    magn:   -0.0000    constr:    0.0000
     atom:   21    charge:    9.6679    magn:   -0.0000    constr:    0.0000
     atom:   22    charge:    9.6683    magn:   -0.0000    constr:    0.0000
     atom:   23    charge:    9.6680    magn:   -0.0000    constr:    0.0000
     atom:   24    charge:    9.6684    magn:    0.0000    constr:    0.0000
     atom:   25    charge:    9.6682    magn:   -0.0000    constr:    0.0000
     atom:   26    charge:    9.6680    magn:   -0.0000    constr:    0.0000
     atom:   27    charge:    9.6684    magn:   -0.0000    constr:    0.0000
     atom:   28    charge:    9.6680    magn:   -0.0000    constr:    0.0000
     atom:   29    charge:    9.6687    magn:   -0.0000    constr:    0.0000
     atom:   30    charge:    9.6688    magn:   -0.0000    constr:    0.0000
     atom:   31    charge:    9.6687    magn:   -0.0000    constr:    0.0000
     atom:   32    charge:    9.6688    magn:   -0.0000    constr:    0.0000
     atom:   33    charge:    9.6678    magn:   -0.0000    constr:    0.0000
     atom:   34    charge:    9.6682    magn:    0.0000    constr:    0.0000
     atom:   35    charge:    9.6677    magn:   -0.0000    constr:    0.0000
     atom:   36    charge:    9.6683    magn:   -0.0000    constr:    0.0000
     atom:   37    charge:    9.6683    magn:   -0.0000    constr:    0.0000
     atom:   38    charge:    9.6681    magn:    0.0000    constr:    0.0000
     atom:   39    charge:    9.6683    magn:   -0.0000    constr:    0.0000
     atom:   40    charge:    9.6681    magn:   -0.0000    constr:    0.0000
     atom:   41    charge:    9.6705    magn:   -0.0000    constr:    0.0000
     atom:   42    charge:    9.6699    magn:   -0.0000    constr:    0.0000
     atom:   43    charge:    9.6708    magn:   -0.0000    constr:    0.0000
     atom:   44    charge:    9.6699    magn:   -0.0000    constr:    0.0000
     atom:   45    charge:    9.6697    magn:    0.0000    constr:    0.0000
     atom:   46    charge:    9.6694    magn:    0.0000    constr:    0.0000
     atom:   47    charge:    9.6694    magn:   -0.0000    constr:    0.0000
     atom:   48    charge:    9.6695    magn:    0.0000    constr:    0.0000
     atom:   49    charge:    9.6696    magn:   -0.0000    constr:    0.0000
     atom:   50    charge:    9.6696    magn:    0.0000    constr:    0.0000
     atom:   51    charge:    9.6699    magn:    0.0000    constr:    0.0000
     atom:   52    charge:    9.6697    magn:    0.0000    constr:    0.0000
     atom:   53    charge:    9.6692    magn:    0.0000    constr:    0.0000
     atom:   54    charge:    9.6693    magn:    0.0000    constr:    0.0000
     atom:   55    charge:    9.6691    magn:    0.0000    constr:    0.0000
     atom:   56    charge:    9.6693    magn:    0.0000    constr:    0.0000
     atom:   57    charge:    9.6704    magn:    0.0000    constr:    0.0000
     atom:   58    charge:    9.6708    magn:   -0.0000    constr:    0.0000
     atom:   59    charge:    9.6703    magn:   -0.0000    constr:    0.0000
     atom:   60    charge:    9.6707    magn:    0.0000    constr:    0.0000
[...]
     atom:  135    charge:    1.6520    magn:    0.0000    constr:    0.0000
     atom:  136    charge:    1.6471    magn:    0.0000    constr:    0.0000
     atom:  137    charge:    1.6785    magn:   -0.0000    constr:    0.0000
     atom:  138    charge:    1.6810    magn:    0.0000    constr:    0.0000
     atom:  139    charge:    1.6828    magn:   -0.0000    constr:    0.0000
     atom:  140    charge:    1.6802    magn:   -0.0000    constr:    0.0000
     atom:  141    charge:    1.6805    magn:    0.0000    constr:    0.0000
     atom:  142    charge:    1.6813    magn:   -0.0000    constr:    0.0000
     atom:  143    charge:    1.6808    magn:    0.0000    constr:    0.0000
     atom:  144    charge:    1.6834    magn:    0.0000    constr:    0.0000
     atom:  145    charge:    1.6822    magn:   -0.0000    constr:    0.0000
     atom:  146    charge:    1.6812    magn:   -0.0000    constr:    0.0000
     atom:  147    charge:    1.6807    magn:    0.0000    constr:    0.0000
     atom:  148    charge:    1.6795    magn:    0.0000    constr:    0.0000
     atom:  149    charge:    1.6801    magn:   -0.0000    constr:    0.0000

     End of self-consistent calculation

 ------ SPIN UP ------------

          k = 0.0000 0.0000 0.0000 (256287 PWs)   bands (ev):

   -17.4528 -16.6273 -16.3344 -15.9193 -15.4498 -14.9827 -14.8075 -14.5331
   -14.3531 -14.2678 -14.1932 -13.9656 -13.4690 -13.3061 -13.2102 -13.1856
   -13.1294 -12.6723 -11.6802 -11.5763 -11.5256 -11.3435 -11.0522 -10.3708
    -9.8023  -9.7894  -9.6697  -9.4491  -9.0540  -8.8261  -8.7032  -8.5778
    -8.0635  -7.9596  -7.8021  -7.6961  -7.6079  -7.6016  -7.5893  -7.5143
    -6.4166  -6.4014  -6.1654  -6.1558  -6.0729  -5.9938  -5.9034  -5.8946
    -5.8890  -5.6282  -5.6182  -5.3322  -4.9950  -4.9156  -4.8330  -4.7283
    -4.6967  -4.6942  -4.4916  -4.3639  -4.2155  -4.1258  -4.1227  -4.0309
    -3.9767  -3.7523  -3.6314  -3.6038  -3.5553  -3.5436  -3.5289  -3.4880
    -3.4268  -3.3653  -3.3021  -3.2307  -3.1811  -3.1484  -3.1441  -3.1402
    -3.1263  -3.0840  -2.9548  -2.9304  -2.9227  -2.8699  -2.8673  -2.8488
    -2.8350  -2.7817  -2.7600  -2.6521  -2.5403  -2.5135  -2.5097  -2.4649
    -2.4571  -2.3298  -2.3275  -2.3119  -2.2880  -2.2869  -2.2863  -2.2859
    -2.2788  -2.2600  -2.2308  -2.1996  -2.1581  -2.1581  -2.1537  -2.1536
    -2.0892  -2.0276  -1.9747  -1.9120  -1.8929  -1.8773  -1.8729  -1.8718
    -1.8479  -1.8246  -1.8071  -1.7946  -1.7934  -1.7855  -1.7395  -1.7281
    -1.7192  -1.6983  -1.6966  -1.6890  -1.6866  -1.6721  -1.6586  -1.6504
    -1.6483  -1.6428  -1.6268  -1.5778  -1.5659  -1.5507  -1.5405  -1.5172
    -1.5106  -1.4951  -1.4872  -1.4335  -1.4196  -1.3985  -1.3970  -1.3854
    -1.3465  -1.3452  -1.3276  -1.3267  -1.3231  -1.3018  -1.2978  -1.2826
    -1.2548  -1.2461  -1.2261  -1.1849  -1.1816  -1.1757  -1.1661  -1.1638
    -1.1576  -1.1569  -1.1560  -1.1538  -1.1510  -1.1497  -1.1363  -1.1334
    -1.1189  -1.0961  -1.0872  -1.0741  -1.0671  -1.0638  -1.0544  -1.0541
    -1.0513  -1.0278  -0.9979  -0.9947  -0.9914  -0.9906  -0.9903  -0.9897
    -0.9885  -0.9854  -0.9843  -0.9829  -0.9824  -0.9822  -0.9786  -0.9769
    -0.9762  -0.9718  -0.9600  -0.9593  -0.9274  -0.9182  -0.8946  -0.8249
    -0.8245  -0.8179  -0.8178  -0.7957  -0.7954  -0.7769  -0.7767  -0.7557
    -0.7546  -0.7473  -0.7434  -0.7350  -0.7339  -0.7228  -0.7051  -0.6993
    -0.6942  -0.6940  -0.6906  -0.6885  -0.6883  -0.6774  -0.6764  -0.6278
    -0.6274  -0.5737  -0.5736  -0.5637  -0.5633  -0.5602  -0.5581  -0.5528
    -0.5438  -0.5420  -0.5393  -0.5382  -0.5377  -0.5354  -0.5353  -0.5350
    -0.5193  -0.5193  -0.5128  -0.5094  -0.5048  -0.4863  -0.4860  -0.4370
    -0.4338  -0.4315  -0.4254  -0.4253  -0.4064  -0.3998  -0.3997  -0.3961
    -0.3960  -0.3828  -0.3817  -0.3767  -0.3766  -0.3691  -0.3567  -0.3544
    -0.3527  -0.3490  -0.3479  -0.3475  -0.3464  -0.3457  -0.3437  -0.3387
    -0.3253  -0.3249  -0.3211  -0.3208  -0.3037  -0.2839  -0.2557  -0.2529
    -0.2525  -0.2489  -0.2477  -0.2074  -0.2046  -0.2044  -0.2038  -0.2004
    -0.1966  -0.1957  -0.1955  -0.1948  -0.1882  -0.1765  -0.1612  -0.1517
    -0.1439  -0.1433  -0.1388  -0.1375  -0.1342  -0.1154  -0.1149  -0.1096
    -0.1077  -0.1055  -0.1007  -0.0904  -0.0885  -0.0875  -0.0869  -0.0860
    -0.0809  -0.0710  -0.0707  -0.0699  -0.0697  -0.0611  -0.0565  -0.0537
    -0.0496  -0.0316  -0.0296   0.0007   0.0016   0.0160   0.0324   0.0363
     0.0547   0.0647   0.0726   0.0980   0.0993   0.1007   0.1085   0.1107
     0.1127   0.1358   0.1369   0.1387   0.1389   0.1395   0.1459   0.1478
     0.1481   0.1936   0.2075   0.2080   0.2083   0.2141   0.2155   0.2173
     0.2427   0.2463   0.2482   0.2501   0.2516   0.2661   0.2695   0.2841
     0.2853   0.2900   0.2958   0.3046   0.3068   0.3079   0.3155   0.3454
     0.3502   0.3588   0.3602   0.3634   0.3660   0.3668   0.3728   0.3881
     0.3892   0.3944   0.3991   0.4002   0.4012   0.4024   0.4058   0.4065
     0.4096   0.4143   0.4173   0.4226   0.4245   0.4262   0.4320   0.4335
     0.4617   0.4725   0.4729   0.4755   0.4862   0.4990   0.5134   0.5140
     0.5164   0.5200   0.5202   0.5211   0.5223   0.5241   0.5267   0.5358
     0.5406   0.5443   0.5467   0.5477   0.5542   0.5544   0.5623   0.5671
     0.5690   0.5771   0.5870   0.5887   0.5921   0.5973   0.6026   0.6044
     0.6083   0.6149   0.6162   0.6162   0.6192   0.6219   0.6230   0.6258
     0.6335   0.6412   0.6535   0.6722   0.6730   0.6854   0.6884   0.6887
     0.6897   0.6906   0.6908   0.7219   0.7226   0.7372   0.7388   0.7430
     0.7433   0.7565   0.7568   0.7656   0.7672   0.7685   0.7691   0.7743
     0.7856   0.8024   0.8053   0.8060   0.8074   0.8092   0.8098   0.8246
     0.8301   0.8426   0.8427   0.8507   0.8527   0.8539   0.8640   0.8742
[...]
     3.8320   3.8705   3.8757   3.8792   3.8868   3.8933   3.9021   3.9052
     3.9236   4.1248   4.1366   4.1452   4.1656   4.3400   4.5090   4.6198
     4.6350   4.7938   4.8515   5.1692   5.2823   5.3094   5.3444   5.4511
     5.5966   5.6111   5.6239   5.6457   5.7937   5.8008   6.1433   6.2542
     6.2648   6.2778   6.3026   6.3681   6.3751   6.3825   6.3909   6.4959
     6.5371   6.5799   6.6043   6.6773   6.6806   6.7101   6.7448   6.8590
     6.9232   6.9280   6.9763   6.9927   7.0139   7.2244   7.2317   7.4606
     7.4733   7.4785   7.5754   7.5801   7.5869   7.6078   7.7142   7.9864
     8.0687   8.1196   8.1659   8.2041   8.2052   8.2147   8.2353   8.2366
     8.2734   8.2779   8.2966   8.3057   8.3630   8.4268   8.4527   8.4768
     8.5046   8.5568   8.5600   8.5666   8.5774   8.7135   8.7143   8.7328
     8.7389   8.8002   8.8166   8.9666   9.0063   9.0169   9.0198   9.0224
     9.0292   9.1253   9.2120   9.2207   9.2676   9.2824   9.4494   9.4514
     9.6969   9.7042   9.7319   9.7593   9.7642   9.8463   9.8684   9.9105
     9.9112  10.0439  10.0550

[...]

          k =-0.5000 0.0000 0.0000 (256496 PWs)   bands (ev):

[...]

 ------ SPIN DOWN ----------

[...]

          k = 0.2500-0.2165 0.0000 (256316 PWs)   bands (ev):

[...]

          k =-0.5000-0.2165 0.0000 (256328 PWs)   bands (ev):

   -17.3602 -16.5991 -15.9716 -15.9019 -15.7562 -15.4492 -15.2215 -15.2107
   -14.7739 -14.0299 -13.7983 -13.7747 -13.4607 -12.6857 -12.3297 -12.0889
   -12.0589 -11.9205 -11.7796 -11.7260 -11.6479 -11.6038 -11.5154 -11.4441
   -11.1946 -10.0846  -9.8804  -9.8059  -9.7714  -9.2323  -8.9233  -8.8389
    -8.7775  -8.2875  -8.2444  -8.0629  -8.0453  -6.5697  -6.3501  -6.1451
    -5.9921  -5.8722  -5.6731  -5.4255  -5.3905  -5.3768  -5.3245  -5.3182
    -5.3169  -5.3142  -5.2484  -5.1060  -5.0849  -4.9202  -4.5852  -4.5171
    -4.4658  -4.4365  -4.4093  -4.3404  -4.3374  -4.3343  -4.3306  -4.2976
    -4.2613  -4.2057  -4.1326  -4.0162  -3.9867  -3.9488  -3.9144  -3.8617
    -3.8227  -3.7689  -3.7495  -3.7035  -3.6805  -3.6582  -3.5795  -3.5490
    -3.5084  -3.2857  -3.1773  -3.1748  -3.1124  -2.7187  -2.7178  -2.7145
    -2.7139  -2.7082  -2.6719  -2.6550  -2.6502  -2.6401  -2.6335  -2.5164
    -2.4359  -2.3605  -2.2532  -2.2396  -2.2334  -2.2225  -2.2099  -2.1746
    -2.1555  -2.1432  -2.1380  -2.1305  -2.0992  -2.0099  -1.9403  -1.9393
    -1.9364  -1.9346  -1.9304  -1.8580  -1.8440  -1.7132  -1.6848  -1.6331
    -1.6286  -1.6281  -1.6278  -1.6277  -1.6237  -1.5907  -1.5891  -1.5864
    -1.5797  -1.5680  -1.5666  -1.5658  -1.5656  -1.5218  -1.5206  -1.5204
    -1.5195  -1.5189  -1.5186  -1.5127  -1.5113  -1.4927  -1.4926  -1.4924
    -1.4922  -1.4471  -1.4457  -1.4421  -1.4416  -1.3902  -1.3799  -1.3704
    -1.3634  -1.3582  -1.3255  -1.3253  -1.3249  -1.3247  -1.3201  -1.3087
    -1.3084  -1.3075  -1.2838  -1.2600  -1.2553  -1.2549  -1.2541  -1.2504
    -1.2501  -1.2500  -1.2480  -1.2386  -1.2198  -1.2153  -1.1957  -1.1954
    -1.1881  -1.1873  -1.1783  -1.1780  -1.1734  -1.1723  -1.1719  -1.1709
    -1.1707  -1.1703  -1.1648  -1.1443  -1.1110  -1.0425  -1.0200  -1.0194
    -1.0178  -1.0171  -0.9879  -0.9875  -0.9869  -0.9867  -0.9247  -0.9068
    -0.9062  -0.9050  -0.9038  -0.8989  -0.8978  -0.8970  -0.8962  -0.8955
    -0.8934  -0.8682  -0.8379  -0.8346  -0.8337  -0.8318  -0.8262  -0.8244
    -0.8233  -0.8217  -0.8071  -0.8042  -0.8006  -0.7976  -0.7593  -0.7115
    -0.7087  -0.7073  -0.7044  -0.7038  -0.7013  -0.6982  -0.6358  -0.6341
    -0.6334  -0.6315  -0.6065  -0.5838  -0.5830  -0.5822  -0.5781  -0.5634
    -0.5633  -0.5627  -0.5625  -0.5363  -0.5341  -0.5331  -0.5247  -0.5245
    -0.5229  -0.5222  -0.5045  -0.4895  -0.4876  -0.4860  -0.4338  -0.4106
    -0.4104  -0.4060  -0.4057  -0.3920  -0.3916  -0.3911  -0.3907  -0.3749
    -0.3745  -0.3745  -0.3701  -0.2919  -0.2910  -0.2902  -0.2899  -0.2882
    -0.2871  -0.2868  -0.2860  -0.2843  -0.2840  -0.2822  -0.2802  -0.2458
    -0.2457  -0.2456  -0.2455  -0.2346  -0.2345  -0.2343  -0.2341  -0.2296
    -0.2290  -0.2285  -0.2276  -0.1615  -0.1611  -0.1610  -0.1592  -0.1370
    -0.1365  -0.1343  -0.1331  -0.0918  -0.0876  -0.0821  -0.0814  -0.0742
    -0.0587  -0.0565  -0.0541  -0.0532  -0.0514  -0.0504  -0.0471  -0.0462
    -0.0455  -0.0429  -0.0420  -0.0410  -0.0406  -0.0352  -0.0346  -0.0344
    -0.0324  -0.0286  -0.0270  -0.0264  -0.0245  -0.0244  -0.0114  -0.0108
    -0.0105  -0.0088   0.0166   0.0170   0.0176   0.0178   0.0255   0.0262
     0.0273   0.0294   0.0516   0.0762   0.0768   0.0771   0.0779   0.1084
     0.1091   0.1098   0.1104   0.1508   0.1767   0.1873   0.1889   0.1911
     0.1936   0.1967   0.1981   0.2047   0.2082   0.2090   0.2105   0.2146
     0.2185   0.2207   0.2225   0.2233   0.2302   0.2308   0.2319   0.2347
     0.2352   0.2367   0.2380   0.2413   0.2464   0.2533   0.2564   0.2716
     0.2741   0.3139   0.3149   0.3172   0.3202   0.3206   0.3219   0.3248
     0.3267   0.3361   0.3366   0.3368   0.3376   0.3663   0.3708   0.3738
     0.3748   0.3754   0.3761   0.3816   0.3819   0.4126   0.4178   0.4184
     0.4200   0.4225   0.4274   0.4323   0.4328   0.4330   0.4344   0.4358
     0.4370   0.4406   0.4409   0.4412   0.4444   0.4549   0.4553   0.4574
     0.4586   0.4590   0.4689   0.4746   0.4757   0.5284   0.5354   0.5404
     0.5434   0.5460   0.5471   0.5484   0.5491   0.5503   0.5511   0.5563
     0.5579   0.5626   0.5690   0.5749   0.5823   0.5940   0.5945   0.5953
     0.5962   0.5966   0.5974   0.5975   0.6002   0.6365   0.6437   0.6489
     0.6496   0.6706   0.6763   0.6776   0.6793   0.6803   0.6902   0.6996
     0.7071   0.7128   0.7139   0.7143   0.7159   0.7382   0.7396   0.7414
     0.7439   0.7896   0.7909   0.7914   0.7922   0.8215   0.8230   0.8237
     0.8244   0.8395   0.8672   0.8748   0.8760   0.8781   0.8826   0.8932
[...]
     4.1182   4.2236   4.2324   4.2505   4.2647   4.4376   4.4403   4.4449
     4.4479   4.4707   4.4899   4.5067   4.5810   4.7707   4.8101   4.8348
     4.8611   4.9464   4.9766   5.0380   5.0414   5.0455   5.0544   5.0937
     5.1352   5.1530   5.2182   5.2469   5.2552   5.2600   5.2718   5.3580
     5.4963   5.6145   5.6180   5.6197   5.6212   5.6425   5.7109   5.7644
     5.7955   5.7986   5.8360   6.5971   6.6328   6.6608   6.6668   6.6707
     6.9845   6.9945   6.9989   7.0087   7.0269   7.0343   7.0393   7.0735
     7.1788   7.1966   7.2017   7.2184   7.2363   7.2411   7.2448   7.2681
     7.4466   7.5274   7.5368   7.5877   7.6106   7.8293   7.8700   7.8818
     7.8849   7.8954   7.9323   8.0949   8.1036   8.1101   8.1349   8.3939
     8.4120   8.6193   8.7028   8.7632   8.7661   8.7692   8.7700   8.7973
     8.8027   8.8077   8.8176   8.8356   8.8396   8.8404   8.8426   8.9749
     9.0830   9.0838   9.1166   9.1317   9.4113   9.4167   9.4381   9.4565
     9.4702   9.4797   9.4866   9.5056   9.5407   9.5762   9.5889   9.8593
     9.9482   9.9647   9.9813

     the Fermi energy is     3.1881 ev

!    total energy              =  -12738.84343418 Ry
     Harris-Foulkes estimate   =  -12738.84343431 Ry
     estimated scf accuracy    <          5.4E-09 Ry

     The total energy is the sum of the following terms:

     one-electron contribution = -109350.51063086 Ry
     hartree contribution      =   56034.39621454 Ry
     xc contribution           =   -4454.68910737 Ry
     ewald contribution        =   45038.36796466 Ry
     Dispersion Correction     =      -3.00718000 Ry
     smearing contrib. (-TS)   =      -3.40069515 Ry

     total magnetization       =    -0.00 Bohr mag/cell
     absolute magnetization    =     0.00 Bohr mag/cell

     convergence has been achieved in  47 iterations

     Writing output data file gc.save

     General routines

     Parallel routines

   This run was terminated on:  18:16:35   9Apr2017

   JOB DONE.