     Program PWSCF v.5.4.0 starts on  1May2017 at  8:48:20

     Current dimensions of program PWSCF are:
     Max number of different atomic species (ntypx) = 10
     Max number of k-points (npk) =  40000
     Max angular momentum in pseudopotentials (lmaxx) =  3
     WARNING: atomic wfc #  2 for atom type 4 has zero norm
     WARNING: atomic wfc #  4 for atom type 4 has zero norm
     WARNING: atomic wfc #  5 for atom type 4 has zero norm

     Parameters for Dispersion Correction:
       atom      VdW radius       C_6

        Cu         2.952        374.666
        C_h        2.744         60.710
        C          2.744         60.710
        O          2.536         24.284
        H          1.892          4.857

     bravais-lattice index     =            0
     lattice parameter (alat)  =      13.9425  a.u.
     unit-cell volume          =   21209.0878 (a.u.)^3
     number of atoms/cell      =          150
     number of atomic types    =            5
     number of electrons       =      1299.00
     number of Kohn-Sham states=          780
     kinetic-energy cutoff     =      80.0000  Ry
     charge density cutoff     =     320.0000  Ry
     convergence threshold     =      1.0E-08
     mixing beta               =       0.7000
     number of iterations used =            8  local-TF  mixing
     Exchange-correlation      =  SLA  PW   PBE  PBE ( 1  4  3  4 0 0)

     celldm(1)=  13.942539  celldm(2)=   0.000000  celldm(3)=   0.000000
     celldm(4)=   0.000000  celldm(5)=   0.000000  celldm(6)=   0.000000

     crystal axes: (cart. coord. in units of alat)
               a(1) = (   1.000000   0.000000   0.000000 )
               a(2) = (   0.000000   2.309401   0.000000 )
               a(3) = (   0.000000   0.000000   3.388418 )

     reciprocal axes: (cart. coord. in units 2 pi/alat)
               b(1) = (  1.000000  0.000000  0.000000 )
               b(2) = (  0.000000  0.433013  0.000000 )
               b(3) = (  0.000000  0.000000  0.295123 )

     PseudoPot. # 1 for Cu read from file:
     /home/549/hxw549/Short/pseudopotentials/Cu.pbe-n-van_ak.UPF
     MD5 check sum: 601f7c30f7467666bec936e0661ce3e1
     Pseudo is Ultrasoft + core correction, Zval = 11.0
     Generated by new atomic code, or converted to UPF format
     Using radial grid of  867 points,  6 beta functions with:
                l(1) =   0
                l(2) =   0
                l(3) =   1
                l(4) =   1
                l(5) =   2
                l(6) =   2
     Q(r) pseudized with  8 coefficients,  rinner =    1.400   1.400   1.400
                                                       1.400   1.400

     PseudoPot. # 2 for C  read from file:
     /home/549/hxw549/Short/pseudopotentials/C.star1s-pbe-mt_gipaw.UPF
     MD5 check sum: ef0cb3dee31bd9e4ba2a832a2c716264
     Pseudo is Norm-conserving, Zval =  5.0
     Generated by new atomic code, or converted to UPF format
     Using radial grid of 1073 points,  1 beta functions with:
                l(1) =   0

     PseudoPot. # 3 for C  read from file:
     /home/549/hxw549/Short/pseudopotentials/C.pbe-mt_gipaw.UPF
     MD5 check sum: 5ac2f21f2c440b14befe521540822c15
     Pseudo is Norm-conserving, Zval =  4.0
     Generated by new atomic code, or converted to UPF format
     Using radial grid of 1073 points,  1 beta functions with:
                l(1) =   0

     PseudoPot. # 4 for O  read from file:
     /home/549/hxw549/Short/pseudopotentials/O.pbe-van_gipaw.UPF
     MD5 check sum: 5ce2a047509d4f331db576c963e74b29
     Pseudo is Ultrasoft, Zval =  6.0
     Generated by new atomic code, or converted to UPF format
     Using radial grid of 1095 points,  4 beta functions with:
                l(1) =   0
                l(2) =   0
                l(3) =   1
                l(4) =   1
     Q(r) pseudized with 0 coefficients

     PseudoPot. # 5 for H  read from file:
     /home/549/hxw549/Short/pseudopotentials/H.pbe-van_ak.UPF
     MD5 check sum: 077eb6d537518a38cb46c6de387227b7
     Pseudo is Ultrasoft, Zval =  1.0
     Generated by new atomic code, or converted to UPF format
     Using radial grid of  615 points,  1 beta functions with:
                l(1) =   0
     Q(r) pseudized with  8 coefficients,  rinner =    0.800

     atomic species   valence    mass     pseudopotential
        Cu            11.00    63.54600     Cu( 1.00)
        C_h            5.00    12.01070     C ( 1.00)
        C              4.00    12.01070     C ( 1.00)
        O              6.00    15.99940     O ( 1.00)
        H              1.00     1.00783     H ( 1.00)

     No symmetry found

   Cartesian axes

     site n.     atom                  positions (alat units)
         1           Cu  tau(   1) = (   0.0001245  -0.0000826   0.9988218  )
         2           Cu  tau(   2) = (   0.2500938   0.2314176   0.9990096  )
         3           Cu  tau(   3) = (   0.5001173  -0.0000058   0.9988529  )
         4           Cu  tau(   4) = (   0.7501395   0.2314030   0.9990145  )
         5           Cu  tau(   5) = (   0.0001084   0.4623982   0.9990014  )
         6           Cu  tau(   6) = (   0.2500996   0.6930296   0.9986014  )
         7           Cu  tau(   7) = (   0.5001153   0.4623455   0.9989299  )
         8           Cu  tau(   8) = (   0.7501160   0.6930324   0.9986271  )
         9           Cu  tau(   9) = (   0.0001014   0.9236418   0.9982855  )
        10           Cu  tau(  10) = (   0.2501147   1.1542168   0.9983814  )
        11           Cu  tau(  11) = (   0.5001117   0.9236304   0.9982944  )
        12           Cu  tau(  12) = (   0.7501039   1.1542195   0.9984058  )
        13           Cu  tau(  13) = (   0.0001174   1.3846774   0.9987949  )
        14           Cu  tau(  14) = (   0.2501320   1.6151893   0.9991574  )
        15           Cu  tau(  15) = (   0.5001135   1.3847053   0.9988816  )
        16           Cu  tau(  16) = (   0.7501109   1.6151916   0.9991584  )
        17           Cu  tau(  17) = (   0.0001234   1.8461159   0.9990217  )
        18           Cu  tau(  18) = (   0.2501546   2.0775871   0.9988237  )
        19           Cu  tau(  19) = (   0.5001274   1.8460599   0.9990951  )
        20           Cu  tau(  20) = (   0.7500965   2.0775910   0.9988200  )
        21           Cu  tau(  21) = (   0.0001202   0.2312798   1.2470500  )
        22           Cu  tau(  22) = (   0.2501266  -0.0002279   1.2465469  )
        23           Cu  tau(  23) = (   0.5001277   0.2314108   1.2471161  )
        24           Cu  tau(  24) = (   0.7501288  -0.0002220   1.2465597  )
        25           Cu  tau(  25) = (   0.0001151   0.6935290   1.2473932  )
        26           Cu  tau(  26) = (   0.2501287   0.4626528   1.2474123  )
        27           Cu  tau(  27) = (   0.5001061   0.6934427   1.2472910  )
        28           Cu  tau(  28) = (   0.7501074   0.4626399   1.2474111  )
        29           Cu  tau(  29) = (   0.0001084   1.1539136   1.2473399  )
        30           Cu  tau(  30) = (   0.2501012   0.9238036   1.2471593  )
        31           Cu  tau(  31) = (   0.5001013   1.1538543   1.2473491  )
        32           Cu  tau(  32) = (   0.7501099   0.9238066   1.2471850  )
        33           Cu  tau(  33) = (   0.0001167   1.6149989   1.2475846  )
        34           Cu  tau(  34) = (   0.2501326   1.3841796   1.2477159  )
        35           Cu  tau(  35) = (   0.5001188   1.6149564   1.2478131  )
        36           Cu  tau(  36) = (   0.7500895   1.3841885   1.2477151  )
        37           Cu  tau(  37) = (   0.0001271   2.0775972   1.2465320  )
        38           Cu  tau(  38) = (   0.2501315   1.8461849   1.2471166  )
        39           Cu  tau(  39) = (   0.5001280   2.0776237   1.2465139  )
        40           Cu  tau(  40) = (   0.7501148   1.8461863   1.2471266  )
        41           Cu  tau(  41) = (   0.0001445  -0.0006156   1.4955938  )
        42           Cu  tau(  42) = (   0.2502310   0.2310698   1.4959482  )
        43           Cu  tau(  43) = (   0.5001493  -0.0005590   1.4954827  )
        44           Cu  tau(  44) = (   0.7500683   0.2310823   1.4959770  )
        45           Cu  tau(  45) = (   0.0001477   0.4627820   1.4965127  )
        46           Cu  tau(  46) = (   0.2501959   0.6939405   1.4973920  )
        47           Cu  tau(  47) = (   0.5001361   0.4630119   1.4969365  )
        48           Cu  tau(  48) = (   0.7500498   0.6939105   1.4973597  )
        49           Cu  tau(  49) = (   0.0001172   0.9239760   1.4978786  )
        50           Cu  tau(  50) = (   0.2501356   1.1533840   1.4980140  )
        51           Cu  tau(  51) = (   0.5000943   0.9237421   1.4979268  )
        52           Cu  tau(  52) = (   0.7500538   1.1534069   1.4980069  )
        53           Cu  tau(  53) = (   0.0001221   1.3838026   1.4975986  )
        54           Cu  tau(  54) = (   0.2501153   1.6149224   1.4970014  )
        55           Cu  tau(  55) = (   0.5000799   1.3834740   1.4978333  )
        56           Cu  tau(  56) = (   0.7501127   1.6149262   1.4969900  )
        57           Cu  tau(  57) = (   0.0001221   1.8463794   1.4962334  )
        58           Cu  tau(  58) = (   0.2501019   2.0776874   1.4957066  )
        59           Cu  tau(  59) = (   0.5001306   1.8466273   1.4962760  )
        60           Cu  tau(  60) = (   0.7501736   2.0777007   1.4957081  )
[...]
       103           C   tau( 103) = (   0.1662576   0.0009591   2.3862245  )
       104           C   tau( 104) = (   0.1662773   0.3856249   2.3821414  )
       105           C   tau( 105) = (   0.3327997   0.0971057   2.3843535  )
       106           C   tau( 106) = (   0.3328840   0.2894230   2.3820496  )
       107           C   tau( 107) = (   0.4995919   0.0007445   2.3845572  )
       108           C   tau( 108) = (   0.4997492   0.3861055   2.3809669  )
       109           C   tau( 109) = (   0.6664438   0.0971153   2.3856348  )
       110           C   tau( 110) = (   0.6665990   0.2893991   2.3831185  )
       111           C   tau( 111) = (   0.8329667   0.0009821   2.3869627  )
       112           C   tau( 112) = (   0.8333321   0.3854712   2.3826497  )
       113           C   tau( 113) = (  -0.0002725   0.6741827   2.3779647  )
       114           C   tau( 114) = (  -0.0000973   0.8665586   2.3758157  )
       115           C   tau( 115) = (   0.1661022   0.5779345   2.3783235  )
       116           C   tau( 116) = (   0.1671232   0.9624978   2.3835632  )
       117           C   tau( 117) = (   0.3326950   0.6749417   2.3810696  )
       118           C_h tau( 118) = (   0.3310986   0.8656224   2.3892963  )
       119           C   tau( 119) = (   0.4996363   0.5779250   2.3820222  )
       120           C   tau( 120) = (   0.4996762   0.9618746   2.4439267  )
       121           O   tau( 121) = (   0.4912753   0.9532910   2.6499196  )
       122           H   tau( 122) = (   0.6130058   0.9845079   2.6945064  )
       123           C   tau( 123) = (   0.6667148   0.6746003   2.3810921  )
       124           C   tau( 124) = (   0.6682846   0.8654468   2.3894120  )
       125           C   tau( 125) = (   0.8333502   0.5777349   2.3786748  )
       126           C   tau( 126) = (   0.8325925   0.9624364   2.3836418  )
       127           C   tau( 127) = (  -0.0002104   1.2512703   2.3858857  )
       128           C   tau( 128) = (  -0.0001778   1.4441849   2.3823907  )
       129           C   tau( 129) = (   0.1664529   1.1555908   2.3873834  )
       130           C   tau( 130) = (   0.1666527   1.5405023   2.3817303  )
       131           C   tau( 131) = (   0.3338444   1.2519409   2.3889129  )
       132           C   tau( 132) = (   0.3333805   1.4445803   2.3844802  )
       133           C   tau( 133) = (   0.4996644   1.1579795   2.3964612  )
       134           C   tau( 134) = (   0.4997819   1.5407968   2.3862952  )
       135           C   tau( 135) = (   0.6655175   1.2519948   2.3889844  )
       136           C   tau( 136) = (   0.6662146   1.4447503   2.3853758  )
       137           C   tau( 137) = (   0.8330246   1.1555822   2.3876612  )
       138           C   tau( 138) = (   0.8329924   1.5405701   2.3828489  )
       139           C   tau( 139) = (  -0.0003527   1.8293325   2.3816845  )
       140           C   tau( 140) = (  -0.0005815   2.0217961   2.3839877  )
       141           C   tau( 141) = (   0.1665134   1.7329856   2.3823971  )
       142           C   tau( 142) = (   0.1660514   2.1179503   2.3845032  )
       143           C   tau( 143) = (   0.3329702   1.8292529   2.3851589  )
       144           C   tau( 144) = (   0.3328306   2.0216859   2.3851757  )
       145           C   tau( 145) = (   0.4996230   1.7332577   2.3862450  )
       146           C   tau( 146) = (   0.4993988   2.1177604   2.3867020  )
       147           C   tau( 147) = (   0.6662018   1.8292198   2.3855625  )
       148           C   tau( 148) = (   0.6660217   2.0216721   2.3855138  )
       149           C   tau( 149) = (   0.8328201   1.7330551   2.3830081  )
       150           C   tau( 150) = (   0.8328221   2.1179726   2.3847324  )

     number of k points=     6  gaussian smearing, width (Ry)=  0.1000
                       cart. coord. in units 2pi/alat
        k(    1) = (   0.0000000   0.0000000   0.0000000), wk =   0.2500000
        k(    2) = (   0.0000000  -0.2165064   0.0000000), wk =   0.2500000
        k(    3) = (   0.2500000   0.0000000   0.0000000), wk =   0.5000000
        k(    4) = (   0.2500000  -0.2165064   0.0000000), wk =   0.5000000
        k(    5) = (  -0.5000000   0.0000000   0.0000000), wk =   0.2500000
        k(    6) = (  -0.5000000  -0.2165064   0.0000000), wk =   0.2500000

     Largest allocated arrays     est. size (Mb)     dimensions
     Largest temporary arrays     est. size (Mb)     dimensions

     Initial potential from superposition of free atoms
     Check: negative starting charge=   -0.001759

     starting charge 1273.81750, renormalised to 1299.00000

     negative rho (up, down):  1.794E-03 0.000E+00
     Starting wfc are 1289 randomized atomic wfcs

     Self-consistent Calculation

     iteration #  1     ecut=    80.00 Ry     beta=0.70
     Davidson diagonalization with overlap
     c_bands:  3 eigenvalues not converged
     ethr =  1.00E-04,  avg # of iterations = 28.5

     negative rho (up, down):  2.375E+01 0.000E+00

     total energy              =   -9944.55826003 Ry
     Harris-Foulkes estimate   =  -17290.79327474 Ry
     estimated scf accuracy    <  178211.62192914 Ry

     iteration #  2     ecut=    80.00 Ry     beta=0.70
     Davidson diagonalization with overlap
     ethr =  1.00E-02,  avg # of iterations = 11.0

[...]

     iteration # 36     ecut=    80.00 Ry     beta=0.70
     Davidson diagonalization with overlap
     c_bands:  1 eigenvalues not converged
     c_bands:  1 eigenvalues not converged
     ethr =  3.37E-08,  avg # of iterations = 10.3

[...]

     total energy              =  -12740.14091155 Ry
     Harris-Foulkes estimate   =  -12740.14091159 Ry
     estimated scf accuracy    <       0.00000001 Ry

     iteration # 46     ecut=    80.00 Ry     beta=0.70
     Davidson diagonalization with overlap
     ethr =  1.10E-12,  avg # of iterations =  2.5

     negative rho (up, down):  2.072E-03 0.000E+00

     End of self-consistent calculation

          k = 0.0000 0.0000 0.0000 (256287 PWs)   bands (ev):

   -18.2259 -16.6336 -16.1949 -16.0150 -15.3296 -14.9569 -14.7279 -14.4302
   -14.2389 -14.1102 -14.0861 -14.0363 -13.3923 -13.2303 -13.0883 -13.0480
   -13.0381 -12.9884 -11.5997 -11.4692 -11.3921 -11.3233 -11.1621 -10.2778
    -9.6960  -9.6607  -9.5811  -9.4570  -8.9178  -8.7143  -8.6221  -8.5516
    -7.9633  -7.8446  -7.7016  -7.5717  -7.5328  -7.5157  -7.4992  -7.4793
    -6.3643  -6.2859  -6.0984  -6.0353  -6.0097  -5.9085  -5.8466  -5.8196
    -5.8070  -5.5443  -5.4849  -5.4589  -5.0408  -4.7782  -4.7549  -4.6493
    -4.5855  -4.5793  -4.4530  -4.3718  -4.1522  -4.0449  -3.9913  -3.9844
    -3.9622  -3.9093  -3.6118  -3.5193  -3.4925  -3.4092  -3.4043  -3.3923
    -3.3692  -3.2540  -3.2250  -3.1757  -3.1480  -3.0102  -3.0085  -3.0065
    -3.0016  -2.9826  -2.9193  -2.8354  -2.8268  -2.7862  -2.7417  -2.7342
    -2.7242  -2.6813  -2.6600  -2.6344  -2.5163  -2.3831  -2.3778  -2.3452
    -2.3385  -2.2887  -2.2106  -2.1914  -2.1912  -2.1513  -2.1509  -2.1505
    -2.1503  -2.1202  -2.0749  -2.0470  -2.0220  -2.0217  -2.0184  -2.0182
    -1.9896  -1.9571  -1.9392  -1.8398  -1.7759  -1.7407  -1.7380  -1.7376
    -1.7367  -1.6996  -1.6917  -1.6713  -1.6584  -1.6538  -1.6242  -1.6063
    -1.5951  -1.5855  -1.5667  -1.5624  -1.5606  -1.5577  -1.5396  -1.5284
    -1.5248  -1.5147  -1.5126  -1.4716  -1.4412  -1.4271  -1.4151  -1.4031
    -1.3834  -1.3765  -1.3517  -1.3378  -1.3002  -1.2979  -1.2630  -1.2614
    -1.2492  -1.2132  -1.2104  -1.2090  -1.1913  -1.1878  -1.1662  -1.1624
    -1.1471  -1.1190  -1.1046  -1.0877  -1.0496  -1.0468  -1.0388  -1.0337
    -1.0267  -1.0219  -1.0207  -1.0199  -1.0191  -1.0159  -1.0144  -0.9999
    -0.9975  -0.9820  -0.9658  -0.9509  -0.9360  -0.9310  -0.9262  -0.9182
    -0.9171  -0.9156  -0.8860  -0.8588  -0.8574  -0.8553  -0.8551  -0.8543
    -0.8540  -0.8533  -0.8503  -0.8488  -0.8471  -0.8467  -0.8467  -0.8433
    -0.8433  -0.8406  -0.8405  -0.8276  -0.8265  -0.8000  -0.7844  -0.7483
    -0.6891  -0.6888  -0.6826  -0.6818  -0.6596  -0.6588  -0.6463  -0.6407
    -0.6401  -0.6199  -0.6186  -0.6078  -0.6042  -0.5995  -0.5983  -0.5870
    -0.5644  -0.5635  -0.5594  -0.5586  -0.5534  -0.5520  -0.5417  -0.5409
    -0.4919  -0.4912  -0.4381  -0.4375  -0.4278  -0.4269  -0.4254  -0.4214
    -0.4169  -0.4092  -0.4074  -0.4044  -0.4031  -0.4025  -0.4003  -0.3992
    -0.3989  -0.3841  -0.3838  -0.3789  -0.3752  -0.3714  -0.3505  -0.3494
    -0.3012  -0.2976  -0.2958  -0.2903  -0.2900  -0.2785  -0.2652  -0.2651
    -0.2610  -0.2606  -0.2481  -0.2461  -0.2412  -0.2411  -0.2368  -0.2210
    -0.2195  -0.2167  -0.2160  -0.2140  -0.2122  -0.2109  -0.2103  -0.2078
    -0.1999  -0.1901  -0.1899  -0.1866  -0.1860  -0.1814  -0.1633  -0.1195
    -0.1179  -0.1169  -0.1164  -0.1143  -0.1113  -0.0713  -0.0686  -0.0670
    -0.0668  -0.0612  -0.0611  -0.0602  -0.0594  -0.0584  -0.0412  -0.0398
    -0.0089  -0.0085  -0.0063  -0.0043   0.0005   0.0016   0.0195   0.0203
     0.0237   0.0267   0.0290   0.0345   0.0462   0.0474   0.0476   0.0477
     0.0510   0.0550   0.0641   0.0649   0.0652   0.0655   0.0732   0.0771
     0.0802   0.0881   0.1039   0.1049   0.1365   0.1370   0.1519   0.1677
     0.1689   0.1884   0.1974   0.1997   0.2317   0.2349   0.2368   0.2439
     0.2469   0.2474   0.2646   0.2731   0.2732   0.2750   0.2751   0.2816
     0.2830   0.2852   0.3093   0.3291   0.3422   0.3427   0.3496   0.3509
     0.3518   0.3549   0.3787   0.3832   0.3841   0.3864   0.3876   0.4144
     0.4174   0.4209   0.4229   0.4299   0.4379   0.4397   0.4433   0.4487
     0.4792   0.4826   0.4931   0.4947   0.4969   0.5019   0.5027   0.5090
     0.5258   0.5273   0.5308   0.5336   0.5360   0.5372   0.5375   0.5405
     0.5416   0.5456   0.5491   0.5536   0.5568   0.5573   0.5604   0.5656
     0.5674   0.5799   0.5977   0.6070   0.6072   0.6118   0.6217   0.6427
     0.6490   0.6496   0.6515   0.6528   0.6548   0.6566   0.6572   0.6576
     0.6647   0.6716   0.6765   0.6798   0.6804   0.6818   0.6855   0.6888
     0.6891   0.6987   0.7016   0.7099   0.7219   0.7237   0.7254   0.7297
     0.7347   0.7355   0.7429   0.7494   0.7502   0.7502   0.7550   0.7558
     0.7563   0.7604   0.7683   0.7706   0.8070   0.8075   0.8185   0.8209
     0.8234   0.8238   0.8257   0.8272   0.8546   0.8575   0.8651   0.8723
     0.8740   0.8777   0.8779   0.8917   0.8921   0.9004   0.9012   0.9025
     0.9031   0.9107   0.9167   0.9296   0.9381   0.9401   0.9429   0.9433
     0.9445   0.9449   0.9626   0.9705   0.9786   0.9869   0.9876   0.9922
[...]
     3.9654   4.0019   4.0081   4.0100   4.0132   4.0137   4.0187   4.0248
     4.0285   4.2510   4.2600   4.2648   4.2705   4.4280   4.6235   4.6896
     4.7701   4.8895   4.9866   5.2994   5.3593   5.4211   5.4458   5.5313
     5.7127   5.7281   5.7415   5.7495   5.9286   5.9341   6.3187   6.3664
     6.3918   6.4121   6.4333   6.4909   6.4926   6.5023   6.5235   6.5937
     6.6242   6.6978   6.7483   6.7821   6.7979   6.8244   6.8660   7.0175
     7.0536   7.0657   7.0924   7.1007   7.1040   7.3445   7.3604   7.3616
     7.5434   7.5795   7.5841   7.7013   7.7095   7.7150   7.7225   7.9189
     8.1037   8.1370   8.1821   8.2260   8.2407   8.3225   8.3361   8.3385
     8.3416   8.3436   8.4104   8.4226   8.4328   8.4481   8.5611   8.5888
     8.5979   8.6767   8.6780   8.6787   8.6858   8.8254   8.8409   8.8430
     8.8464   8.8513   8.8529   8.9924   9.1113   9.1256   9.1339   9.1348
     9.1455   9.1618   9.1928   9.2920   9.3400   9.3512   9.3643   9.5405
     9.5802   9.5826   9.5964   9.7004   9.7307   9.8282   9.8356  10.0450
    10.0455  10.0475  10.1798  10.1934

[...]

          k = 0.2500-0.2165 0.0000 (256316 PWs)   bands (ev):

[...]

          k =-0.5000 0.0000 0.0000 (256496 PWs)   bands (ev):

[...]

          k =-0.5000-0.2165 0.0000 (256328 PWs)   bands (ev):

   -18.2092 -16.5360 -15.8121 -15.7863 -15.7354 -15.3372 -15.1389 -15.0816
   -15.0009 -13.9810 -13.7428 -13.6419 -13.5980 -12.5358 -12.2219 -11.9800
   -11.9736 -11.8207 -11.7110 -11.6030 -11.5467 -11.4871 -11.4682 -11.3918
   -11.3667  -9.9407  -9.9216  -9.7353  -9.6908  -9.1459  -8.8470  -8.7504
    -8.7144  -8.2151  -8.1610  -7.9867  -7.9654  -6.5238  -6.3045  -6.0554
    -5.9069  -5.7794  -5.6460  -5.5619  -5.2708  -5.2664  -5.2126  -5.1839
    -5.1807  -5.1796  -5.1633  -5.1130  -4.9940  -4.9880  -4.4982  -4.4218
    -4.3373  -4.3279  -4.2921  -4.2373  -4.2030  -4.1997  -4.1987  -4.1965
    -4.1786  -4.1632  -4.0398  -3.9429  -3.8992  -3.8517  -3.8199  -3.7763
    -3.7130  -3.6942  -3.6596  -3.6374  -3.5732  -3.5688  -3.4989  -3.4588
    -3.4299  -3.3287  -3.1128  -3.0596  -3.0503  -2.9270  -2.6226  -2.5807
    -2.5787  -2.5781  -2.5757  -2.5578  -2.5256  -2.5175  -2.5161  -2.5096
    -2.4065  -2.3150  -2.1379  -2.1135  -2.1056  -2.0979  -2.0959  -2.0863
    -2.0570  -2.0221  -2.0152  -2.0086  -2.0020  -1.9839  -1.8378  -1.8039
    -1.8027  -1.8011  -1.7980  -1.7529  -1.7405  -1.7091  -1.5691  -1.5475
    -1.5092  -1.4977  -1.4929  -1.4925  -1.4922  -1.4921  -1.4539  -1.4531
    -1.4521  -1.4516  -1.4334  -1.4328  -1.4305  -1.4304  -1.3857  -1.3848
    -1.3841  -1.3836  -1.3829  -1.3825  -1.3783  -1.3745  -1.3576  -1.3575
    -1.3571  -1.3570  -1.3189  -1.3103  -1.3061  -1.3057  -1.2974  -1.2453
    -1.2345  -1.2290  -1.2281  -1.1998  -1.1903  -1.1897  -1.1892  -1.1891
    -1.1725  -1.1717  -1.1704  -1.1623  -1.1233  -1.1206  -1.1197  -1.1192
    -1.1152  -1.1151  -1.1148  -1.1140  -1.1060  -1.0970  -1.0854  -1.0600
    -1.0599  -1.0529  -1.0514  -1.0502  -1.0428  -1.0425  -1.0391  -1.0375
    -1.0362  -1.0354  -1.0353  -1.0347  -1.0335  -0.9856  -0.9672  -0.8840
    -0.8829  -0.8815  -0.8794  -0.8522  -0.8518  -0.8515  -0.8512  -0.7839
    -0.7714  -0.7707  -0.7689  -0.7679  -0.7638  -0.7617  -0.7615  -0.7612
    -0.7598  -0.7581  -0.7526  -0.6997  -0.6991  -0.6986  -0.6980  -0.6901
    -0.6889  -0.6883  -0.6869  -0.6706  -0.6692  -0.6640  -0.6603  -0.5896
    -0.5750  -0.5739  -0.5715  -0.5689  -0.5669  -0.5665  -0.5571  -0.4992
    -0.4987  -0.4972  -0.4950  -0.4529  -0.4485  -0.4476  -0.4470  -0.4293
    -0.4280  -0.4275  -0.4267  -0.4247  -0.4017  -0.3998  -0.3964  -0.3893
    -0.3883  -0.3880  -0.3864  -0.3656  -0.3491  -0.3488  -0.3471  -0.2751
    -0.2748  -0.2708  -0.2703  -0.2622  -0.2565  -0.2563  -0.2557  -0.2552
    -0.2398  -0.2393  -0.2389  -0.2287  -0.1578  -0.1568  -0.1562  -0.1541
    -0.1536  -0.1525  -0.1509  -0.1499  -0.1494  -0.1490  -0.1474  -0.1399
    -0.1114  -0.1113  -0.1111  -0.1105  -0.0997  -0.0991  -0.0990  -0.0989
    -0.0947  -0.0944  -0.0936  -0.0925  -0.0263  -0.0260  -0.0252  -0.0234
    -0.0032  -0.0012   0.0030   0.0042   0.0454   0.0461   0.0545   0.0549
     0.0588   0.0685   0.0801   0.0802   0.0807   0.0821   0.0841   0.0856
     0.0876   0.0900   0.0903   0.0924   0.0942   0.0946   0.1005   0.1009
     0.1021   0.1022   0.1069   0.1071   0.1090   0.1100   0.1113   0.1240
     0.1242   0.1243   0.1265   0.1516   0.1517   0.1524   0.1525   0.1598
     0.1618   0.1626   0.1647   0.1834   0.2115   0.2118   0.2120   0.2131
     0.2406   0.2444   0.2453   0.2459   0.2608   0.3056   0.3161   0.3174
     0.3238   0.3254   0.3284   0.3295   0.3354   0.3388   0.3422   0.3448
     0.3459   0.3480   0.3511   0.3574   0.3580   0.3600   0.3666   0.3672
     0.3686   0.3692   0.3712   0.3724   0.3765   0.3801   0.3828   0.3837
     0.3963   0.4013   0.4478   0.4493   0.4512   0.4540   0.4576   0.4578
     0.4580   0.4626   0.4702   0.4704   0.4711   0.4718   0.4982   0.5020
     0.5086   0.5091   0.5101   0.5109   0.5177   0.5185   0.5253   0.5503
     0.5524   0.5535   0.5550   0.5564   0.5623   0.5677   0.5681   0.5697
     0.5701   0.5708   0.5756   0.5758   0.5766   0.5800   0.5883   0.5902
     0.5932   0.5935   0.5952   0.6051   0.6092   0.6099   0.6357   0.6651
     0.6720   0.6751   0.6784   0.6812   0.6822   0.6839   0.6842   0.6861
     0.6865   0.6923   0.6939   0.6968   0.7046   0.7121   0.7285   0.7298
     0.7302   0.7309   0.7312   0.7325   0.7327   0.7356   0.7512   0.7667
     0.7811   0.7848   0.7853   0.7992   0.8118   0.8121   0.8139   0.8150
     0.8318   0.8365   0.8475   0.8481   0.8494   0.8515   0.8730   0.8737
     0.8747   0.8755   0.8921   0.9250   0.9261   0.9269   0.9274   0.9560
     0.9587   0.9595   0.9598   0.9677   1.0057   1.0101   1.0122   1.0152
[...]
     4.2601   4.3439   4.3568   4.3590   4.3806   4.5620   4.5665   4.5717
     4.5725   4.5936   4.5981   4.6167   4.7296   4.8761   4.8982   4.9104
     4.9934   5.0464   5.0831   5.1637   5.1730   5.1746   5.1836   5.2155
     5.2569   5.3005   5.3410   5.3507   5.3602   5.3670   5.3729   5.4398
     5.5780   5.7442   5.7468   5.7499   5.7503   5.7550   5.7595   5.8559
     5.9003   5.9170   5.9193   6.4945   6.7641   6.7663   6.8043   6.8080
     7.1115   7.1213   7.1359   7.1421   7.1546   7.1604   7.1626   7.1878
     7.2706   7.3019   7.3035   7.3070   7.3670   7.3697   7.3717   7.3740
     7.5846   7.6326   7.6345   7.6461   7.7926   7.8313   7.9324   7.9842
     7.9930   8.0036   8.0144   8.0417   8.2270   8.2381   8.2455   8.2524
     8.3977   8.4205   8.4679   8.7679   8.8893   8.8939   8.9008   8.9025
     8.9104   8.9256   8.9339   8.9351   8.9677   8.9705   8.9737   8.9821
     9.0924   9.1428   9.1439   9.1469   9.1942   9.3290   9.4401   9.4978
     9.5341   9.5388   9.5652   9.5777   9.5810   9.5930   9.6001   9.6043
     9.9203   9.9925  10.0056  10.0099

     the Fermi energy is     3.3224 ev

!    total energy              =  -12740.14091152 Ry
     Harris-Foulkes estimate   =  -12740.14091155 Ry
     estimated scf accuracy    <          2.3E-09 Ry

     The total energy is the sum of the following terms:

     one-electron contribution = -108949.82538107 Ry
     hartree contribution      =   55840.14695991 Ry
     xc contribution           =   -4455.50005891 Ry
     ewald contribution        =   44831.39299768 Ry
     Dispersion Correction     =      -3.00587863 Ry
     smearing contrib. (-TS)   =      -3.34955052 Ry

     convergence has been achieved in  46 iterations

     Writing output data file gc.save

     General routines

     Parallel routines

   This run was terminated on:  12:29:21   1May2017

   JOB DONE.