     Program PWSCF v.5.4.0 starts on  1May2017 at  9: 4:21

     Current dimensions of program PWSCF are:
     Max number of different atomic species (ntypx) = 10
     Max number of k-points (npk) =  40000
     Max angular momentum in pseudopotentials (lmaxx) =  3

     Parameters for Dispersion Correction:
       atom      VdW radius       C_6

        Cu         2.952        374.666
        C_h        2.744         60.710
        C          2.744         60.710
        H          1.892          4.857

     bravais-lattice index     =            0
     lattice parameter (alat)  =      13.9425  a.u.
     unit-cell volume          =   21209.0878 (a.u.)^3
     number of atoms/cell      =          153
     number of atomic types    =            4
     number of electrons       =      1300.00
     number of Kohn-Sham states=          780
     kinetic-energy cutoff     =      80.0000  Ry
     charge density cutoff     =     320.0000  Ry
     convergence threshold     =      1.0E-08
     mixing beta               =       0.7000
     number of iterations used =            8  local-TF  mixing
     Exchange-correlation      =  SLA  PW   PBE  PBE ( 1  4  3  4 0 0)

     celldm(1)=  13.942539  celldm(2)=   0.000000  celldm(3)=   0.000000
     celldm(4)=   0.000000  celldm(5)=   0.000000  celldm(6)=   0.000000

     crystal axes: (cart. coord. in units of alat)
               a(1) = (   1.000000   0.000000   0.000000 )
               a(2) = (   0.000000   2.309401   0.000000 )
               a(3) = (   0.000000   0.000000   3.388418 )

     reciprocal axes: (cart. coord. in units 2 pi/alat)
               b(1) = (  1.000000  0.000000  0.000000 )
               b(2) = (  0.000000  0.433013  0.000000 )
               b(3) = (  0.000000  0.000000  0.295123 )

     PseudoPot. # 1 for Cu read from file:
     /home/549/hxw549/Short/pseudopotentials/Cu.pbe-n-van_ak.UPF
     MD5 check sum: 601f7c30f7467666bec936e0661ce3e1
     Pseudo is Ultrasoft + core correction, Zval = 11.0
     Generated by new atomic code, or converted to UPF format
     Using radial grid of  867 points,  6 beta functions with:
                l(1) =   0
                l(2) =   0
                l(3) =   1
                l(4) =   1
                l(5) =   2
                l(6) =   2
     Q(r) pseudized with  8 coefficients,  rinner =    1.400   1.400   1.400
                                                       1.400   1.400

     PseudoPot. # 2 for C  read from file:
     /home/549/hxw549/Short/pseudopotentials/C.star1s-pbe-mt_gipaw.UPF
     MD5 check sum: ef0cb3dee31bd9e4ba2a832a2c716264
     Pseudo is Norm-conserving, Zval =  5.0
     Generated by new atomic code, or converted to UPF format
     Using radial grid of 1073 points,  1 beta functions with:
                l(1) =   0

     PseudoPot. # 3 for C  read from file:
     /home/549/hxw549/Short/pseudopotentials/C.pbe-mt_gipaw.UPF
     MD5 check sum: 5ac2f21f2c440b14befe521540822c15
     Pseudo is Norm-conserving, Zval =  4.0
     Generated by new atomic code, or converted to UPF format
     Using radial grid of 1073 points,  1 beta functions with:
                l(1) =   0

     PseudoPot. # 4 for H  read from file:
     /home/549/hxw549/Short/pseudopotentials/H.pbe-van_ak.UPF
     MD5 check sum: 077eb6d537518a38cb46c6de387227b7
     Pseudo is Ultrasoft, Zval =  1.0
     Generated by new atomic code, or converted to UPF format
     Using radial grid of  615 points,  1 beta functions with:
                l(1) =   0
     Q(r) pseudized with  8 coefficients,  rinner =    0.800

     atomic species   valence    mass     pseudopotential
        Cu            11.00    63.54600     Cu( 1.00)
        C_h            5.00    12.01070     C ( 1.00)
        C              4.00    12.01070     C ( 1.00)
        H              1.00     1.00783     H ( 1.00)

     No symmetry found

   Cartesian axes

     site n.     atom                  positions (alat units)
         1           Cu  tau(   1) = (   0.0005942  -0.0038463   0.9930871  )
         2           Cu  tau(   2) = (   0.2511630   0.2244508   0.9942371  )
         3           Cu  tau(   3) = (   0.5007811  -0.0044706   0.9933156  )
         4           Cu  tau(   4) = (   0.7505207   0.2245418   0.9940835  )
         5           Cu  tau(   5) = (   0.0008481   0.4562049   0.9956409  )
         6           Cu  tau(   6) = (   0.2506786   0.6900795   0.9976618  )
         7           Cu  tau(   7) = (   0.5008632   0.4564016   0.9956302  )
         8           Cu  tau(   8) = (   0.7509606   0.6899328   0.9972468  )
         9           Cu  tau(   9) = (   0.0010626   0.9239011   0.9978053  )
        10           Cu  tau(  10) = (   0.2506086   1.1579934   0.9970288  )
        11           Cu  tau(  11) = (   0.5007037   0.9239065   0.9982690  )
        12           Cu  tau(  12) = (   0.7509822   1.1580641   0.9967192  )
        13           Cu  tau(  13) = (   0.0007618   1.3923352   0.9946266  )
        14           Cu  tau(  14) = (   0.2511320   1.6244682   0.9931181  )
        15           Cu  tau(  15) = (   0.5008944   1.3922557   0.9946286  )
        16           Cu  tau(  16) = (   0.7504689   1.6245618   0.9928784  )
        17           Cu  tau(  17) = (   0.0006403   1.8529676   0.9923519  )
        18           Cu  tau(  18) = (   0.2502663   2.0793525   0.9921530  )
        19           Cu  tau(  19) = (   0.5006837   1.8534625   0.9923857  )
        20           Cu  tau(  20) = (   0.7509333   2.0791621   0.9926036  )
        21           Cu  tau(  21) = (   0.0008436   0.2226903   1.2439799  )
        22           Cu  tau(  22) = (   0.2508004  -0.0053476   1.2453895  )
        23           Cu  tau(  23) = (   0.5008992   0.2231066   1.2437588  )
        24           Cu  tau(  24) = (   0.7506478  -0.0047299   1.2459640  )
        25           Cu  tau(  25) = (   0.0008489   0.6881471   1.2427947  )
        26           Cu  tau(  26) = (   0.2509174   0.4537933   1.2424126  )
        27           Cu  tau(  27) = (   0.5014493   0.6879078   1.2426873  )
        28           Cu  tau(  28) = (   0.7510800   0.4540268   1.2428095  )
        29           Cu  tau(  29) = (   0.0008866   1.1607300   1.2418123  )
        30           Cu  tau(  30) = (   0.2504606   0.9243917   1.2433168  )
        31           Cu  tau(  31) = (   0.5012960   1.1608479   1.2417939  )
        32           Cu  tau(  32) = (   0.7514211   0.9242728   1.2422531  )
        33           Cu  tau(  33) = (   0.0008238   1.6260289   1.2427661  )
        34           Cu  tau(  34) = (   0.2508668   1.3949963   1.2411065  )
        35           Cu  tau(  35) = (   0.5008273   1.6259522   1.2425316  )
        36           Cu  tau(  36) = (   0.7510233   1.3949321   1.2413170  )
        37           Cu  tau(  37) = (   0.0002797   2.0789654   1.2472520  )
        38           Cu  tau(  38) = (   0.2506780   1.8539880   1.2445803  )
        39           Cu  tau(  39) = (   0.5009511   2.0786742   1.2465668  )
        40           Cu  tau(  40) = (   0.7506849   1.8531565   1.2454973  )
        41           Cu  tau(  41) = (   0.0004902  -0.0048640   1.5012899  )
        42           Cu  tau(  42) = (   0.2509479   0.2213919   1.4948764  )
        43           Cu  tau(  43) = (   0.5008633  -0.0055096   1.4998236  )
        44           Cu  tau(  44) = (   0.7507049   0.2224039   1.4962002  )
        45           Cu  tau(  45) = (   0.0008858   0.4521035   1.4909719  )
        46           Cu  tau(  46) = (   0.2508978   0.6868072   1.4865842  )
        47           Cu  tau(  47) = (   0.5015522   0.4518694   1.4903810  )
        48           Cu  tau(  48) = (   0.7514726   0.6871259   1.4876615  )
        49           Cu  tau(  49) = (   0.0002500   0.9250368   1.4863019  )
        50           Cu  tau(  50) = (   0.2505897   1.1628075   1.4859838  )
        51           Cu  tau(  51) = (   0.5009744   0.9248361   1.4856989  )
        52           Cu  tau(  52) = (   0.7515423   1.1627813   1.4863707  )
        53           Cu  tau(  53) = (   0.0008363   1.3971227   1.4898823  )
        54           Cu  tau(  54) = (   0.2508389   1.6273910   1.4937434  )
        55           Cu  tau(  55) = (   0.5014752   1.3979066   1.4886943  )
        56           Cu  tau(  56) = (   0.7508714   1.6259248   1.4956944  )
        57           Cu  tau(  57) = (   0.0004376   1.8527965   1.5010687  )
        58           Cu  tau(  58) = (   0.2504027   2.0785939   1.5029371  )
        59           Cu  tau(  59) = (   0.5009858   1.8533152   1.5000881  )
        60           Cu  tau(  60) = (   0.7509970   2.0786638   1.5031194  )
[...]
       135           C   tau( 135) = (   0.8332378   1.1569421   2.5820745  )
       136           C   tau( 136) = (   0.8331711   1.5381531   2.5038020  )
       137           C   tau( 137) = (  -0.0001042   1.8267606   2.4581975  )
       138           C   tau( 138) = (  -0.0001516   2.0211056   2.4468364  )
       139           C   tau( 139) = (   0.1666301   1.7298093   2.4723584  )
       140           C   tau( 140) = (   0.1664718   2.1188427   2.4491755  )
       141           C   tau( 141) = (   0.3331974   1.8269638   2.4626428  )
       142           C   tau( 142) = (   0.3331985   2.0211166   2.4504279  )
       143           C   tau( 143) = (   0.4998554   1.7299413   2.4736692  )
       144           C   tau( 144) = (   0.4997837   2.1189131   2.4508552  )
       145           C   tau( 145) = (   0.6664794   1.8269319   2.4609715  )
       146           C   tau( 146) = (   0.6664253   2.0211530   2.4491533  )
       147           C   tau( 147) = (   0.8330798   1.7297223   2.4708304  )
       148           C   tau( 148) = (   0.8330937   2.1189094   2.4468884  )
       149           H   tau( 149) = (   0.4446619   0.9035800   2.3768416  )
       150           C_h tau( 150) = (   0.3968788   0.8859315   2.2396702  )
       151           H   tau( 151) = (   0.5360793   0.8733752   2.1781091  )
       152           H   tau( 152) = (   0.3176552   0.7592170   2.2348797  )
       153           H   tau( 153) = (   0.3152415   1.0076446   2.2117415  )

     number of k points=     6  gaussian smearing, width (Ry)=  0.1000
                       cart. coord. in units 2pi/alat
        k(    1) = (   0.0000000   0.0000000   0.0000000), wk =   0.2500000
        k(    2) = (   0.0000000  -0.2165064   0.0000000), wk =   0.2500000
        k(    3) = (   0.2500000   0.0000000   0.0000000), wk =   0.5000000
        k(    4) = (   0.2500000  -0.2165064   0.0000000), wk =   0.5000000
        k(    5) = (  -0.5000000   0.0000000   0.0000000), wk =   0.2500000
        k(    6) = (  -0.5000000  -0.2165064   0.0000000), wk =   0.2500000

     Largest allocated arrays     est. size (Mb)     dimensions
     Largest temporary arrays     est. size (Mb)     dimensions

     Initial potential from superposition of free atoms
     Check: negative starting charge=   -0.001555

     starting charge 1274.31748, renormalised to 1300.00000

     negative rho (up, down):  1.587E-03 0.000E+00
     Starting wfc are 1296 randomized atomic wfcs

     Self-consistent Calculation

     iteration #  1     ecut=    80.00 Ry     beta=0.70
     Davidson diagonalization with overlap
     c_bands:  2 eigenvalues not converged
     ethr =  1.00E-04,  avg # of iterations = 49.0

     negative rho (up, down):  2.326E+01 0.000E+00

     total energy              =  -10139.41564412 Ry
     Harris-Foulkes estimate   =  -18191.34896750 Ry
     estimated scf accuracy    <  210741.67837642 Ry

     iteration #  2     ecut=    80.00 Ry     beta=0.70
     Davidson diagonalization with overlap
     ethr =  1.00E-02,  avg # of iterations = 13.5

[...]

     iteration # 38     ecut=    80.00 Ry     beta=0.70
     Davidson diagonalization with overlap
     c_bands:  1 eigenvalues not converged
     ethr =  9.04E-10,  avg # of iterations =  5.0

[...]

     total energy              =  -12723.09729238 Ry
     Harris-Foulkes estimate   =  -12723.09729237 Ry
     estimated scf accuracy    <       0.00000001 Ry

     iteration # 45     ecut=    80.00 Ry     beta=0.70
     Davidson diagonalization with overlap
     ethr =  9.48E-13,  avg # of iterations =  3.0

     negative rho (up, down):  1.662E-03 0.000E+00

     End of self-consistent calculation

          k = 0.0000 0.0000 0.0000 (256287 PWs)   bands (ev):

   -16.0058 -15.6643 -15.5685 -14.9766 -14.5147 -14.4963 -14.0074 -13.9968
   -13.6726 -13.6658 -13.6148 -13.6116 -12.7767 -12.7540 -12.6050 -12.6025
   -12.5938 -12.5922 -10.9727 -10.9545 -10.9398 -10.9352 -10.8531  -9.6923
    -9.1763  -9.1660  -8.9974  -8.9949  -8.1623  -8.1526  -8.1044  -8.1032
    -7.2735  -7.2694  -7.2360  -7.1099  -7.0788  -7.0696  -7.0688  -7.0325
    -7.0304  -6.8871  -6.6585  -5.9103  -5.5746  -5.5677  -5.5510  -5.5485
    -5.4518  -5.4518  -5.4414  -5.4385  -5.3853  -5.3739  -4.7994  -4.3218
    -4.3188  -4.2959  -4.2923  -4.1460  -4.0720  -4.0696  -3.8890  -3.8868
    -3.6796  -3.6633  -3.3102  -3.3085  -3.2373  -3.2331  -3.2007  -3.1992
    -3.1550  -2.9642  -2.9591  -2.9262  -2.9236  -2.9153  -2.9148  -2.9103
    -2.9096  -2.8527  -2.7406  -2.6882  -2.5166  -2.4715  -2.4588  -2.4470
    -2.4171  -2.4127  -2.3928  -2.3893  -2.3649  -2.3599  -2.2068  -2.2029
    -2.2001  -2.1965  -2.1060  -2.1039  -2.0767  -2.0748  -2.0709  -2.0682
    -1.9453  -1.9446  -1.9202  -1.9196  -1.9088  -1.8692  -1.8499  -1.7730
    -1.6985  -1.6562  -1.6543  -1.6506  -1.6446  -1.6414  -1.6333  -1.6144
    -1.5778  -1.5687  -1.5600  -1.5573  -1.5434  -1.5324  -1.5203  -1.5169
    -1.5136  -1.5062  -1.4893  -1.4884  -1.4644  -1.4523  -1.4489  -1.4372
    -1.4347  -1.4232  -1.4113  -1.4089  -1.3727  -1.3714  -1.3322  -1.2751
    -1.2499  -1.2268  -1.2218  -1.2073  -1.2067  -1.1943  -1.1825  -1.1628
    -1.1364  -1.1322  -1.1119  -1.1106  -1.0982  -1.0936  -1.0714  -1.0685
    -1.0024  -0.9822  -0.9814  -0.9726  -0.9689  -0.9623  -0.9607  -0.9581
    -0.9555  -0.9513  -0.9494  -0.9425  -0.9341  -0.9184  -0.9129  -0.9110
    -0.9068  -0.9050  -0.8728  -0.8654  -0.8640  -0.8450  -0.8426  -0.8323
    -0.8231  -0.8050  -0.7954  -0.7929  -0.7867  -0.7800  -0.7733  -0.7694
    -0.7690  -0.7671  -0.7666  -0.7642  -0.7637  -0.7577  -0.7548  -0.7533
    -0.7506  -0.7473  -0.6783  -0.6230  -0.6160  -0.6151  -0.6070  -0.5803
    -0.5688  -0.5631  -0.5608  -0.5584  -0.5522  -0.5470  -0.5444  -0.5378
    -0.5322  -0.5211  -0.5182  -0.5123  -0.4851  -0.4842  -0.4805  -0.4771
    -0.4755  -0.4728  -0.4670  -0.4598  -0.4116  -0.4079  -0.3845  -0.3779
    -0.3744  -0.3707  -0.3643  -0.3505  -0.3474  -0.3426  -0.3414  -0.3403
    -0.3386  -0.3352  -0.3310  -0.3242  -0.3238  -0.3219  -0.3216  -0.3191
    -0.3116  -0.3069  -0.3021  -0.3012  -0.2885  -0.2791  -0.2670  -0.2591
    -0.2568  -0.2485  -0.2364  -0.2351  -0.2304  -0.2139  -0.2115  -0.2071
    -0.2006  -0.1956  -0.1880  -0.1876  -0.1816  -0.1766  -0.1692  -0.1676
    -0.1625  -0.1552  -0.1541  -0.1539  -0.1477  -0.1410  -0.1347  -0.1309
    -0.1287  -0.1132  -0.1114  -0.1089  -0.1066  -0.1033  -0.1027  -0.0875
    -0.0648  -0.0578  -0.0559  -0.0488  -0.0473  -0.0137  -0.0117  -0.0037
     0.0028   0.0036   0.0091   0.0203   0.0236   0.0290   0.0327   0.0335
     0.0434   0.0517   0.0536   0.0559   0.0773   0.0807   0.0873   0.0883
     0.0937   0.1002   0.1016   0.1115   0.1159   0.1198   0.1305   0.1343
     0.1361   0.1392   0.1436   0.1517   0.1521   0.1593   0.1640   0.1731
     0.1770   0.1865   0.1899   0.1991   0.2128   0.2265   0.2278   0.2404
     0.2445   0.2449   0.2458   0.2544   0.2833   0.2854   0.2886   0.2928
     0.2972   0.3260   0.3318   0.3458   0.3550   0.3555   0.3659   0.3747
     0.3837   0.3852   0.4022   0.4050   0.4128   0.4171   0.4217   0.4350
     0.4402   0.4472   0.4480   0.4517   0.4541   0.4616   0.4662   0.4718
     0.4847   0.4879   0.4896   0.5004   0.5140   0.5153   0.5264   0.5349
     0.5410   0.5445   0.5524   0.5537   0.5575   0.5654   0.5706   0.5743
     0.5830   0.5852   0.6016   0.6043   0.6078   0.6105   0.6193   0.6250
     0.6258   0.6288   0.6313   0.6317   0.6340   0.6383   0.6429   0.6498
     0.6564   0.6599   0.6706   0.6744   0.6760   0.6820   0.6847   0.6986
     0.7048   0.7129   0.7186   0.7233   0.7291   0.7309   0.7342   0.7453
     0.7490   0.7516   0.7532   0.7539   0.7548   0.7575   0.7616   0.7682
     0.7692   0.7785   0.7829   0.7872   0.7936   0.7961   0.8009   0.8038
     0.8116   0.8164   0.8167   0.8275   0.8288   0.8311   0.8406   0.8431
     0.8472   0.8626   0.8670   0.8722   0.8816   0.8954   0.8976   0.9152
     0.9217   0.9231   0.9250   0.9293   0.9321   0.9400   0.9446   0.9508
     0.9524   0.9570   0.9601   0.9636   0.9649   0.9685   0.9792   0.9857
     0.9880   0.9905   0.9965   1.0015   1.0017   1.0082   1.0100   1.0128
     1.0201   1.0335   1.0491   1.0528   1.0600   1.0618   1.0649   1.0664
[...]
     3.9315   3.9642   3.9881   4.0024   4.0609   4.0640   4.0743   4.0761
     4.0844   4.1793   4.1906   4.2179   4.2199   4.3747   4.8232   4.9826
     5.1826   5.1977   5.2513   5.2750   5.3155   5.3278   5.3547   5.3827
     5.5539   5.5859   5.7242   5.7421   5.9794   5.9877   6.1208   6.1564
     6.2172   6.3257   6.4068   6.4401   6.4757   6.4881   6.5813   6.6781
     6.6918   6.7450   6.8220   6.9319   6.9397   6.9704   6.9840   7.0056
     7.0320   7.0760   7.1244   7.1455   7.1803   7.1919   7.2804   7.3596
     7.4313   7.4492   7.5523   7.6358   7.6482   7.6990   7.7647   7.9301
     8.0206   8.0507   8.0591   8.0889   8.1130   8.1756   8.2152   8.2503
     8.3254   8.3379   8.3521   8.4019   8.4198   8.5098   8.5445   8.5887
     8.5982   8.6167   8.6302   8.6876   8.7138   8.7605   8.7800   8.8368
     8.8422   8.8603   8.8741   8.8767   8.9221   8.9795   9.0244   9.0444
     9.0519   9.1226   9.1361   9.2817   9.3949   9.4297   9.4895   9.5469
     9.5705   9.5888   9.6111   9.6252   9.6368   9.7343   9.8670   9.8986
     9.9300  10.0720  10.1141  10.1170

[...]

          k = 0.2500-0.2165 0.0000 (256316 PWs)   bands (ev):

[...]

          k =-0.5000 0.0000 0.0000 (256496 PWs)   bands (ev):

[...]

          k =-0.5000-0.2165 0.0000 (256328 PWs)   bands (ev):

   -15.5729 -15.3882 -15.3486 -15.3405 -14.9512 -14.6616 -14.6441 -14.6347
   -14.6026 -13.2628 -13.2539 -13.2246 -13.2228 -11.6111 -11.6048 -11.5291
   -11.5280 -11.2807 -11.2369 -11.2183 -11.2165 -10.9784 -10.9743 -10.9395
   -10.9363  -9.3187  -9.3056  -9.2758  -9.2750  -8.4077  -8.3824  -8.3696
    -8.3501  -7.6552  -7.6433  -7.6171  -7.6154  -7.2257  -6.8944  -6.6662
    -5.6055  -5.6046  -5.5726  -5.5708  -5.0840  -5.0782  -5.0760  -5.0730
    -4.9203  -4.9182  -4.8881  -4.8872  -4.5962  -4.5848  -4.5298  -4.5285
    -4.1017  -4.1006  -4.0987  -4.0959  -4.0382  -4.0341  -3.9966  -3.9831
    -3.7481  -3.7400  -3.7369  -3.7366  -3.4992  -3.4801  -3.4740  -3.4176
    -3.3447  -3.3399  -3.3024  -3.2995  -3.2499  -3.2370  -3.2361  -3.1999
    -3.1625  -3.1614  -3.1556  -3.1512  -2.6577  -2.6367  -2.6236  -2.5972
    -2.4982  -2.4945  -2.4916  -2.4898  -2.4893  -2.4875  -2.4620  -2.4379
    -2.0158  -2.0080  -2.0062  -1.9992  -1.9902  -1.9885  -1.9877  -1.9867
    -1.9819  -1.9763  -1.9712  -1.9455  -1.7363  -1.7194  -1.7181  -1.7101
    -1.6506  -1.6356  -1.6244  -1.6140  -1.5148  -1.5108  -1.5075  -1.5058
    -1.4447  -1.4240  -1.4166  -1.4140  -1.4117  -1.4087  -1.4023  -1.3952
    -1.3577  -1.3562  -1.3440  -1.3417  -1.3297  -1.3206  -1.3085  -1.2998
    -1.2964  -1.2922  -1.2897  -1.2877  -1.2793  -1.2755  -1.2739  -1.2695
    -1.2298  -1.2274  -1.2218  -1.2078  -1.2003  -1.1880  -1.1837  -1.1592
    -1.1285  -1.1227  -1.1118  -1.1075  -1.1012  -1.0974  -1.0862  -1.0770
    -1.0721  -1.0700  -1.0694  -1.0673  -1.0585  -1.0563  -1.0556  -1.0503
    -1.0371  -1.0360  -1.0348  -1.0304  -1.0041  -0.9952  -0.9864  -0.9848
    -0.9754  -0.9697  -0.9615  -0.9572  -0.9558  -0.9498  -0.9490  -0.9459
    -0.9452  -0.9431  -0.9390  -0.9351  -0.8169  -0.8016  -0.7914  -0.7829
    -0.7807  -0.7802  -0.7774  -0.7764  -0.7520  -0.7155  -0.7102  -0.7093
    -0.7057  -0.7023  -0.6978  -0.6936  -0.6912  -0.6907  -0.6792  -0.6761
    -0.6739  -0.6717  -0.6695  -0.6656  -0.6374  -0.6260  -0.6224  -0.6176
    -0.6157  -0.6105  -0.6024  -0.5952  -0.5896  -0.5854  -0.5472  -0.5445
    -0.5218  -0.5091  -0.4913  -0.4768  -0.4558  -0.4502  -0.4486  -0.4457
    -0.4293  -0.4250  -0.4160  -0.4139  -0.3749  -0.3738  -0.3711  -0.3678
    -0.3566  -0.3545  -0.3405  -0.3366  -0.3283  -0.3234  -0.3172  -0.3130
    -0.3097  -0.3016  -0.2966  -0.2919  -0.2419  -0.2387  -0.2308  -0.2216
    -0.2190  -0.2189  -0.1957  -0.1912  -0.1767  -0.1754  -0.1705  -0.1685
    -0.1651  -0.1649  -0.1556  -0.1538  -0.1123  -0.1082  -0.1045  -0.0984
    -0.0941  -0.0937  -0.0866  -0.0856  -0.0738  -0.0709  -0.0694  -0.0684
    -0.0503  -0.0481  -0.0476  -0.0453  -0.0390  -0.0345  -0.0286  -0.0227
    -0.0168  -0.0115  -0.0096  -0.0039  -0.0002   0.0200   0.0409   0.0466
     0.0511   0.0548   0.0791   0.0933   0.1085   0.1194   0.1265   0.1265
     0.1270   0.1301   0.1354   0.1432   0.1498   0.1508   0.1564   0.1607
     0.1622   0.1657   0.1690   0.1695   0.1772   0.1809   0.1813   0.1856
     0.1870   0.1898   0.1925   0.1946   0.1963   0.1971   0.1992   0.2009
     0.2145   0.2221   0.2296   0.2325   0.2353   0.2403   0.2428   0.2507
     0.2567   0.2646   0.2687   0.2769   0.2794   0.2955   0.3007   0.3065
     0.3143   0.3226   0.3244   0.3308   0.3355   0.3599   0.3684   0.3830
     0.3861   0.3888   0.4009   0.4201   0.4299   0.4318   0.4333   0.4387
     0.4510   0.4548   0.4684   0.4691   0.4698   0.4793   0.4823   0.4895
     0.4957   0.4988   0.5061   0.5158   0.5230   0.5288   0.5302   0.5405
     0.5427   0.5431   0.5444   0.5467   0.5473   0.5484   0.5540   0.5633
     0.5681   0.5692   0.5719   0.5750   0.5823   0.5885   0.6037   0.6062
     0.6140   0.6183   0.6248   0.6298   0.6325   0.6387   0.6400   0.6449
     0.6517   0.6525   0.6564   0.6603   0.6733   0.6792   0.6829   0.6865
     0.6897   0.6913   0.6922   0.6945   0.6978   0.6992   0.7036   0.7066
     0.7150   0.7293   0.7304   0.7371   0.7425   0.7448   0.7462   0.7483
     0.7528   0.7544   0.7580   0.7633   0.7699   0.7708   0.7764   0.7787
     0.7957   0.7969   0.7999   0.8021   0.8058   0.8125   0.8152   0.8161
     0.8178   0.8204   0.8237   0.8257   0.8359   0.8535   0.8572   0.8587
     0.8806   0.8846   0.8884   0.8919   0.9032   0.9069   0.9120   0.9199
     0.9273   0.9389   0.9425   0.9435   0.9458   0.9626   0.9701   0.9773
     0.9867   0.9914   0.9988   1.0017   1.0091   1.0102   1.0165   1.0200
     1.0237   1.0297   1.0389   1.0408   1.0498   1.0536   1.0593   1.0631
[...]
     4.2857   4.2924   4.2953   4.3051   4.5086   4.5266   4.5566   4.5864
     4.7239   4.7359   4.7463   4.7634   5.0780   5.1145   5.1204   5.1327
     5.1431   5.1654   5.1860   5.1908   5.1981   5.2121   5.2361   5.2406
     5.2701   5.2864   5.3054   5.4042   5.4214   5.4999   5.5239   5.5430
     5.6191   5.6240   5.6921   5.7222   5.7873   5.7942   5.7989   5.8266
     5.9422   5.9585   6.0070   6.0138   6.6123   6.6819   6.7155   6.8503
     6.9696   7.0263   7.0348   7.0489   7.0555   7.0615   7.0645   7.1063
     7.1427   7.1702   7.1858   7.2450   7.2675   7.3609   7.3750   7.4317
     7.4583   7.4723   7.4806   7.5569   7.7880   7.8083   7.9075   7.9632
     8.0929   8.1510   8.1590   8.1838   8.2209   8.2285   8.2545   8.3024
     8.3713   8.3939   8.4079   8.4177   8.6782   8.7971   8.8714   8.8834
     8.8871   8.9006   8.9206   8.9374   8.9599   8.9691   9.0296   9.0328
     9.0758   9.1348   9.1376   9.1691   9.1951   9.2266   9.2457   9.2984
     9.3167   9.3774   9.3847   9.4176   9.4278   9.4355   9.4382   9.4844
     9.5550   9.6484   9.8150   9.9150

     the Fermi energy is     3.3877 ev

!    total energy              =  -12723.09729239 Ry
     Harris-Foulkes estimate   =  -12723.09729239 Ry
     estimated scf accuracy    <          4.5E-09 Ry

     The total energy is the sum of the following terms:

     one-electron contribution =  -99773.71824780 Ry
     hartree contribution      =   51256.03901867 Ry
     xc contribution           =   -4452.93851850 Ry
     ewald contribution        =   40253.67909072 Ry
     Dispersion Correction     =      -2.81045542 Ry
     smearing contrib. (-TS)   =      -3.34818006 Ry

     convergence has been achieved in  45 iterations

     Writing output data file gc.save

     General routines

     Parallel routines

   This run was terminated on:  13: 4:20   1May2017

   JOB DONE.