     Program PWSCF v.5.4.0 starts on 21Nov2016 at 12:59: 2

     Current dimensions of program PWSCF are:
     Max number of different atomic species (ntypx) = 10
     Max number of k-points (npk) =  40000
     Max angular momentum in pseudopotentials (lmaxx) =  3

     Parameters for Dispersion Correction:
       atom      VdW radius       C_6

        Cu         2.952        374.666

     Found symmetry operation: I + (  0.2500  0.1000  0.0000)
     This is a supercell, fractional translations are disabled

     bravais-lattice index     =            0
     lattice parameter (alat)  =      13.9425  a.u.
     unit-cell volume          =   21209.0878 (a.u.)^3
     number of atoms/cell      =          100
     number of atomic types    =            1
     number of electrons       =      1100.00
     number of Kohn-Sham states=          660
     kinetic-energy cutoff     =      40.0000  Ry
     charge density cutoff     =     180.0000  Ry
     convergence threshold     =      1.0E-08
     mixing beta               =       0.7000
     number of iterations used =            8  plain     mixing
     Exchange-correlation      =  SLA  PW   PBE  PBE ( 1  4  3  4 0 0)
     nstep                     =           50

     celldm(1)=  13.942539  celldm(2)=   0.000000  celldm(3)=   0.000000
     celldm(4)=   0.000000  celldm(5)=   0.000000  celldm(6)=   0.000000

     crystal axes: (cart. coord. in units of alat)
               a(1) = (   1.000000   0.000000   0.000000 )
               a(2) = (   0.000000   2.309401   0.000000 )
               a(3) = (   0.000000   0.000000   3.388418 )

     reciprocal axes: (cart. coord. in units 2 pi/alat)
               b(1) = (  1.000000  0.000000  0.000000 )
               b(2) = (  0.000000  0.433013  0.000000 )
               b(3) = (  0.000000  0.000000  0.295123 )

     PseudoPot. # 1 for Cu read from file:
     /home/549/hxw549/Short/pseudopotentials/Cu.pbe-n-van_ak.UPF
     MD5 check sum: 601f7c30f7467666bec936e0661ce3e1
     Pseudo is Ultrasoft + core correction, Zval = 11.0
     Generated by new atomic code, or converted to UPF format
     Using radial grid of  867 points,  6 beta functions with:
                l(1) =   0
                l(2) =   0
                l(3) =   1
                l(4) =   1
                l(5) =   2
                l(6) =   2
     Q(r) pseudized with  8 coefficients,  rinner =    1.400   1.400   1.400
                                                       1.400   1.400

     atomic species   valence    mass     pseudopotential
        Cu            11.00    63.54600     Cu( 1.00)

      8 Sym. Ops., with inversion, found

   Cartesian axes

     site n.     atom                  positions (alat units)
         1           Cu  tau(   1) = (   0.0000000   0.0000000   1.2056354  )
         2           Cu  tau(   2) = (   0.2500000   0.2309401   1.2056354  )
         3           Cu  tau(   3) = (   0.5000000   0.0000000   1.2056354  )
         4           Cu  tau(   4) = (   0.7500000   0.2309401   1.2056354  )
         5           Cu  tau(   5) = (   0.0000000   0.4618802   1.2056354  )
         6           Cu  tau(   6) = (   0.2500000   0.6928203   1.2056354  )
         7           Cu  tau(   7) = (   0.5000000   0.4618802   1.2056354  )
         8           Cu  tau(   8) = (   0.7500000   0.6928203   1.2056354  )
         9           Cu  tau(   9) = (   0.0000000   0.9237604   1.2056354  )
        10           Cu  tau(  10) = (   0.2500000   1.1547005   1.2056354  )
        11           Cu  tau(  11) = (   0.5000000   0.9237604   1.2056354  )
        12           Cu  tau(  12) = (   0.7500000   1.1547005   1.2056354  )
        13           Cu  tau(  13) = (   0.0000000   1.3856406   1.2056354  )
        14           Cu  tau(  14) = (   0.2500000   1.6165808   1.2056354  )
        15           Cu  tau(  15) = (   0.5000000   1.3856406   1.2056354  )
        16           Cu  tau(  16) = (   0.7500000   1.6165808   1.2056354  )
        17           Cu  tau(  17) = (   0.0000000   1.8475209   1.2056354  )
        18           Cu  tau(  18) = (   0.2500000   2.0784610   1.2056354  )
        19           Cu  tau(  19) = (   0.5000000   1.8475209   1.2056354  )
        20           Cu  tau(  20) = (   0.7500000   2.0784610   1.2056354  )
        21           Cu  tau(  21) = (   0.0000000   0.2309401   1.4464147  )
        22           Cu  tau(  22) = (   0.2500000   0.0000000   1.4464147  )
        23           Cu  tau(  23) = (   0.5000000   0.2309401   1.4464147  )
        24           Cu  tau(  24) = (   0.7500000   0.0000000   1.4464147  )
        25           Cu  tau(  25) = (   0.0000000   0.6928203   1.4464147  )
        26           Cu  tau(  26) = (   0.2500000   0.4618802   1.4464147  )
        27           Cu  tau(  27) = (   0.5000000   0.6928203   1.4464147  )
        28           Cu  tau(  28) = (   0.7500000   0.4618802   1.4464147  )
        29           Cu  tau(  29) = (   0.0000000   1.1547005   1.4464147  )
        30           Cu  tau(  30) = (   0.2500000   0.9237604   1.4464147  )
        31           Cu  tau(  31) = (   0.5000000   1.1547005   1.4464147  )
        32           Cu  tau(  32) = (   0.7500000   0.9237604   1.4464147  )
        33           Cu  tau(  33) = (   0.0000000   1.6165808   1.4464147  )
        34           Cu  tau(  34) = (   0.2500000   1.3856406   1.4464147  )
        35           Cu  tau(  35) = (   0.5000000   1.6165808   1.4464147  )
        36           Cu  tau(  36) = (   0.7500000   1.3856406   1.4464147  )
        37           Cu  tau(  37) = (   0.0000000   2.0784610   1.4464147  )
        38           Cu  tau(  38) = (   0.2500000   1.8475209   1.4464147  )
        39           Cu  tau(  39) = (   0.5000000   2.0784610   1.4464147  )
        40           Cu  tau(  40) = (   0.7500000   1.8475209   1.4464147  )
        41           Cu  tau(  41) = (   0.0000000   0.0000000   1.6942091  )
        42           Cu  tau(  42) = (   0.2500000   0.2309401   1.6942091  )
        43           Cu  tau(  43) = (   0.5000000   0.0000000   1.6942091  )
        44           Cu  tau(  44) = (   0.7500000   0.2309401   1.6942091  )
        45           Cu  tau(  45) = (   0.0000000   0.4618802   1.6942091  )
        46           Cu  tau(  46) = (   0.2500000   0.6928203   1.6942091  )
        47           Cu  tau(  47) = (   0.5000000   0.4618802   1.6942091  )
        48           Cu  tau(  48) = (   0.7500000   0.6928203   1.6942091  )
        49           Cu  tau(  49) = (   0.0000000   0.9237604   1.6942091  )
        50           Cu  tau(  50) = (   0.2500000   1.1547005   1.6942091  )
        51           Cu  tau(  51) = (   0.5000000   0.9237604   1.6942091  )
        52           Cu  tau(  52) = (   0.7500000   1.1547005   1.6942091  )
        53           Cu  tau(  53) = (   0.0000000   1.3856406   1.6942091  )
        54           Cu  tau(  54) = (   0.2500000   1.6165808   1.6942091  )
        55           Cu  tau(  55) = (   0.5000000   1.3856406   1.6942091  )
        56           Cu  tau(  56) = (   0.7500000   1.6165808   1.6942091  )
        57           Cu  tau(  57) = (   0.0000000   1.8475209   1.6942091  )
        58           Cu  tau(  58) = (   0.2500000   2.0784610   1.6942091  )
        59           Cu  tau(  59) = (   0.5000000   1.8475209   1.6942091  )
        60           Cu  tau(  60) = (   0.7500000   2.0784610   1.6942091  )
[...]
        86           Cu  tau(  86) = (   0.2500000   0.6928203   2.1827847  )
        87           Cu  tau(  87) = (   0.5000000   0.4618802   2.1827847  )
        88           Cu  tau(  88) = (   0.7500000   0.6928203   2.1827847  )
        89           Cu  tau(  89) = (   0.0000000   0.9237604   2.1827847  )
        90           Cu  tau(  90) = (   0.2500000   1.1547005   2.1827847  )
        91           Cu  tau(  91) = (   0.5000000   0.9237604   2.1827847  )
        92           Cu  tau(  92) = (   0.7500000   1.1547005   2.1827847  )
        93           Cu  tau(  93) = (   0.0000000   1.3856406   2.1827847  )
        94           Cu  tau(  94) = (   0.2500000   1.6165808   2.1827847  )
        95           Cu  tau(  95) = (   0.5000000   1.3856406   2.1827847  )
        96           Cu  tau(  96) = (   0.7500000   1.6165808   2.1827847  )
        97           Cu  tau(  97) = (   0.0000000   1.8475209   2.1827847  )
        98           Cu  tau(  98) = (   0.2500000   2.0784610   2.1827847  )
        99           Cu  tau(  99) = (   0.5000000   1.8475209   2.1827847  )
       100           Cu  tau( 100) = (   0.7500000   2.0784610   2.1827847  )

     number of k points=     4  gaussian smearing, width (Ry)=  0.1000
                       cart. coord. in units 2pi/alat
        k(    1) = (   0.0000000   0.0000000   0.0000000), wk =   0.5000000
        k(    2) = (   0.0000000  -0.2165064   0.0000000), wk =   0.5000000
        k(    3) = (  -0.5000000   0.0000000   0.0000000), wk =   0.5000000
        k(    4) = (  -0.5000000  -0.2165064   0.0000000), wk =   0.5000000

     Largest allocated arrays     est. size (Mb)     dimensions
     Largest temporary arrays     est. size (Mb)     dimensions

     Initial potential from superposition of free atoms
     Check: negative starting charge=   -0.006056

     starting charge 1098.81757, renormalised to 1100.00000

     negative rho (up, down):  6.062E-03 0.000E+00
     Starting wfc are  900 randomized atomic wfcs

     Self-consistent Calculation

     iteration #  1     ecut=    40.00 Ry     beta=0.70
     Davidson diagonalization with overlap
     ethr =  1.00E-04,  avg # of iterations =  7.2

     negative rho (up, down):  1.929E-03 0.000E+00

     total energy              =  -12124.21159634 Ry
     Harris-Foulkes estimate   =  -12155.55691041 Ry
     estimated scf accuracy    <      37.11304833 Ry

[...]

     End of self-consistent calculation

          k = 0.0000 0.0000 0.0000 ( 90535 PWs)   bands (ev):

    -7.4812  -6.9464  -6.9463  -6.3663  -5.8599  -5.8599  -5.4501  -5.4501
    -4.8713  -4.8713  -4.6764  -4.4883  -4.4883  -4.4738  -4.4738  -4.4738
    -4.4738  -4.2307  -4.2307  -3.9814  -3.9814  -3.7676  -3.7676  -3.7676
    -3.7676  -3.6569  -3.6569  -3.6143  -3.6143  -3.6143  -3.6143  -3.4896
    -3.4896  -3.4896  -3.4896  -3.4085  -3.2908  -3.2447  -3.1947  -3.1947
    -3.1947  -3.1947  -3.1691  -3.1691  -3.1213  -3.1213  -3.1159  -3.0468
    -3.0468  -3.0233  -3.0233  -3.0233  -3.0233  -3.0130  -3.0130  -3.0077
    -3.0077  -2.9630  -2.9630  -2.9116  -2.9116  -2.8844  -2.7987  -2.7705
    -2.7705  -2.7705  -2.7705  -2.7464  -2.7292  -2.7292  -2.7050  -2.6568
    -2.6568  -2.6379  -2.6379  -2.6118  -2.6118  -2.4979  -2.4979  -2.4957
    -2.4957  -2.4957  -2.4957  -2.4902  -2.4902  -2.4901  -2.4901  -2.4739
    -2.4739  -2.4689  -2.4607  -2.4607  -2.4580  -2.4580  -2.4553  -2.4182
    -2.3769  -2.3769  -2.3712  -2.3712  -2.3589  -2.3589  -2.3249  -2.3249
    -2.3098  -2.3098  -2.3061  -2.3061  -2.3061  -2.3061  -2.2928  -2.2928
    -2.2890  -2.2890  -2.2841  -2.2841  -2.2841  -2.2722  -2.2722  -2.2630
    -2.1519  -2.1519  -2.1336  -2.1336  -2.1077  -2.1077  -2.0826  -2.0826
    -2.0781  -2.0781  -2.0781  -2.0781  -2.0707  -2.0707  -2.0038  -2.0038
[...]

[...]

     total energy              =  -12150.80056099 Ry
     Harris-Foulkes estimate   =  -12150.80056099 Ry
     estimated scf accuracy    <          1.0E-09 Ry

     iteration #  9     ecut=    40.00 Ry     beta=0.70
     Davidson diagonalization with overlap
     ethr =  1.00E-13,  avg # of iterations =  1.5

[...]

     End of self-consistent calculation

[...]

          k = 0.0000-0.2165 0.0000 ( 90548 PWs)   bands (ev):

[...]

          k =-0.5000-0.2165 0.0000 ( 90676 PWs)   bands (ev):

    -6.5649  -6.5649  -6.5647  -6.5646  -5.5834  -5.5834  -5.5832  -5.5832
    -5.4819  -5.4818  -5.4817  -5.4816  -4.6329  -4.6329  -4.6327  -4.6327
    -3.9804  -3.9804  -3.9802  -3.9802  -3.9730  -3.9730  -3.9728  -3.9728
    -3.4609  -3.4608  -3.4608  -3.4607  -3.4555  -3.4555  -3.4554  -3.4554
    -3.1980  -3.1979  -3.1979  -3.1978  -2.9783  -2.9782  -2.9782  -2.9781
    -2.8927  -2.8927  -2.8925  -2.8925  -2.8638  -2.8638  -2.8636  -2.8636
    -2.8338  -2.8338  -2.8336  -2.8336  -2.7791  -2.7791  -2.7790  -2.7788
    -2.7740  -2.7740  -2.7740  -2.7740  -2.7595  -2.7595  -2.7594  -2.7594
    -2.6920  -2.6920  -2.6919  -2.6919  -2.6401  -2.6401  -2.6401  -2.6401
    -2.5896  -2.5895  -2.5895  -2.5894  -2.5452  -2.5452  -2.5451  -2.5451
    -2.5201  -2.5201  -2.5200  -2.5200  -2.5186  -2.5186  -2.5186  -2.5185
    -2.5091  -2.5091  -2.5090  -2.5090  -2.4520  -2.4520  -2.4519  -2.4518
    -2.4373  -2.4373  -2.4372  -2.4370  -2.4254  -2.4254  -2.4253  -2.4253
    -2.2561  -2.2561  -2.2560  -2.2560  -2.2502  -2.2502  -2.2502  -2.2502
    -2.1788  -2.1788  -2.1788  -2.1788  -2.1554  -2.1554  -2.1553  -2.1552
    -2.1420  -2.1419  -2.1419  -2.1419  -2.0984  -2.0984  -2.0982  -2.0982
    -2.0699  -2.0699  -2.0698  -2.0698  -2.0473  -2.0473  -2.0472  -2.0471
    -1.9398  -1.9398  -1.9397  -1.9397  -1.9176  -1.9176  -1.9175  -1.9175
    -1.8830  -1.8830  -1.8830  -1.8830  -1.8367  -1.8367  -1.8367  -1.8367
    -1.8116  -1.8115  -1.8115  -1.8114  -1.7785  -1.7785  -1.7785  -1.7785
    -1.7545  -1.7544  -1.7544  -1.7544  -1.6914  -1.6914  -1.6913  -1.6913
    -1.6670  -1.6670  -1.6670  -1.6669  -1.6506  -1.6506  -1.6505  -1.6505
    -1.6240  -1.6240  -1.6239  -1.6239  -1.5646  -1.5646  -1.5645  -1.5645
    -1.5396  -1.5396  -1.5396  -1.5396  -1.5373  -1.5372  -1.5372  -1.5372
    -1.5110  -1.5110  -1.5110  -1.5110  -1.4936  -1.4936  -1.4936  -1.4936
    -1.4882  -1.4882  -1.4882  -1.4881  -1.4137  -1.4137  -1.4136  -1.4136
    -1.3790  -1.3790  -1.3789  -1.3789  -1.3327  -1.3327  -1.3327  -1.3327
    -1.3146  -1.3146  -1.3146  -1.3146  -1.3026  -1.3026  -1.3026  -1.3026
    -1.2922  -1.2921  -1.2921  -1.2921  -1.2830  -1.2830  -1.2830  -1.2830
    -1.2758  -1.2758  -1.2757  -1.2757  -1.2708  -1.2708  -1.2708  -1.2708
    -1.2409  -1.2409  -1.2408  -1.2408  -1.2207  -1.2206  -1.2206  -1.2206
    -1.1834  -1.1834  -1.1834  -1.1834  -1.1658  -1.1658  -1.1658  -1.1657
    -1.1457  -1.1456  -1.1456  -1.1456  -1.0575  -1.0575  -1.0575  -1.0575
    -1.0524  -1.0524  -1.0523  -1.0523  -1.0363  -1.0363  -1.0363  -1.0362
    -1.0229  -1.0229  -1.0229  -1.0229  -1.0157  -1.0157  -1.0156  -1.0156
    -0.9428  -0.9428  -0.9428  -0.9428  -0.9304  -0.9304  -0.9304  -0.9304
    -0.9256  -0.9256  -0.9256  -0.9256  -0.8859  -0.8859  -0.8859  -0.8859
    -0.8836  -0.8836  -0.8835  -0.8834  -0.8818  -0.8818  -0.8817  -0.8817
    -0.8309  -0.8309  -0.8309  -0.8309  -0.8245  -0.8245  -0.8245  -0.8244
    -0.8092  -0.8092  -0.8091  -0.8091  -0.7936  -0.7936  -0.7936  -0.7936
    -0.7643  -0.7643  -0.7643  -0.7643  -0.7616  -0.7616  -0.7616  -0.7616
    -0.7112  -0.7112  -0.7111  -0.7111  -0.7069  -0.7069  -0.7069  -0.7069
    -0.7003  -0.7003  -0.7003  -0.7003  -0.6625  -0.6625  -0.6625  -0.6625
    -0.6609  -0.6609  -0.6608  -0.6608  -0.6393  -0.6393  -0.6393  -0.6393
    -0.6222  -0.6222  -0.6222  -0.6222  -0.5799  -0.5799  -0.5799  -0.5799
    -0.5474  -0.5474  -0.5474  -0.5474  -0.5346  -0.5346  -0.5346  -0.5346
    -0.4629  -0.4629  -0.4629  -0.4629  -0.4237  -0.4237  -0.4237  -0.4237
    -0.4107  -0.4107  -0.4107  -0.4107  -0.4009  -0.4009  -0.4008  -0.4008
    -0.3604  -0.3604  -0.3604  -0.3604  -0.3573  -0.3573  -0.3572  -0.3572
    -0.3551  -0.3551  -0.3551  -0.3550  -0.3541  -0.3541  -0.3541  -0.3541
    -0.3301  -0.3301  -0.3300  -0.3300  -0.3136  -0.3136  -0.3136  -0.3136
    -0.2973  -0.2973  -0.2973  -0.2973  -0.2818  -0.2818  -0.2818  -0.2818
    -0.2718  -0.2718  -0.2718  -0.2718  -0.2586  -0.2586  -0.2586  -0.2586
    -0.1995  -0.1995  -0.1995  -0.1995  -0.1926  -0.1926  -0.1925  -0.1925
    -0.1899  -0.1899  -0.1899  -0.1899  -0.1840  -0.1840  -0.1840  -0.1840
    -0.1695  -0.1695  -0.1695  -0.1695  -0.1123  -0.1123  -0.1122  -0.1122
    -0.1106  -0.1106  -0.1106  -0.1106  -0.1071  -0.1071  -0.1071  -0.1071
    -0.0691  -0.0691  -0.0691  -0.0691  -0.0384  -0.0384  -0.0384  -0.0384
    -0.0360  -0.0360  -0.0360  -0.0360  -0.0347  -0.0347  -0.0347  -0.0347
    -0.0321  -0.0321  -0.0321  -0.0321  -0.0116  -0.0116  -0.0116  -0.0116
[...]
     1.5874   1.5874   1.5874   1.5874   2.0541   2.0541   2.0542   2.0542
     2.2349   2.2349   2.2349   2.2349   2.5344   2.5344   2.5345   2.5345
     2.7059   2.7060   2.7060   2.7060   2.8348   2.8348   2.8349   2.8349
     3.0888   3.0889   3.0889   3.0889   3.3018   3.3019   3.3019   3.3019
     3.7602   3.7602   3.7603   3.7603   3.7634   3.7634   3.7634   3.7635
     3.7638   3.7638   3.7638   3.7639   4.1746   4.1747   4.1747   4.1748
     4.3231   4.3231   4.3231   4.3231   5.3833   5.3834   5.3835   5.3836
     5.5770   5.5770   5.5770   5.5770   5.6741   5.6741   5.6742   5.6742
     5.6864   5.6864   5.6864   5.6864   5.9274   5.9275   5.9275   5.9275
     6.0056   6.0056   6.0056   6.0056   6.4562   6.4562   6.4562   6.4562
     6.8206   6.8206   6.8207   6.8208   6.9512   6.9512   6.9513   6.9513
     7.3005   7.3005   7.3005   7.3006   7.4589   7.4589   7.4590   7.4590
     7.4835   7.4835   7.4836   7.4836   7.5452   7.5452   7.5454   7.5454
     7.7515   7.7515   7.7515   7.7515   7.9368   7.9368   7.9368   7.9368
     8.0311   8.0312   8.0312   8.0312

     the Fermi energy is     1.9271 ev

!    total energy              =  -12150.80056099 Ry
     Harris-Foulkes estimate   =  -12150.80056099 Ry
     estimated scf accuracy    <          8.6E-11 Ry

     The total energy is the sum of the following terms:

     one-electron contribution = -111170.29547507 Ry
     hartree contribution      =   56823.53055890 Ry
     xc contribution           =   -4277.62519414 Ry
     ewald contribution        =   46479.08454821 Ry
     Dispersion Correction     =      -2.36774194 Ry
     smearing contrib. (-TS)   =      -3.12725694 Ry

     convergence has been achieved in   9 iterations

     negative rho (up, down):  5.212E-04 0.000E+00

     Forces acting on atoms (Ry/au):

     atom    1 type  1   force =     0.00000000    0.00000000    0.00000246
     atom    2 type  1   force =     0.00000451   -0.00000890   -0.00000099
     atom    3 type  1   force =     0.00000000    0.00000000    0.00000769
     atom    4 type  1   force =    -0.00000451   -0.00000890   -0.00000099
     atom    5 type  1   force =     0.00000000   -0.00001259   -0.00001594
     atom    6 type  1   force =     0.00000799   -0.00000108   -0.00000964
     atom    7 type  1   force =     0.00000000   -0.00000873   -0.00000754
     atom    8 type  1   force =    -0.00000799   -0.00000108   -0.00000964
     atom    9 type  1   force =     0.00000000    0.00000463   -0.00000483
     atom   10 type  1   force =     0.00000872    0.00000000    0.00000736
     atom   11 type  1   force =     0.00000000    0.00000651    0.00000544
     atom   12 type  1   force =    -0.00000872    0.00000000    0.00000736
     atom   13 type  1   force =     0.00000000   -0.00000463   -0.00000483
     atom   14 type  1   force =     0.00000799    0.00000108   -0.00000964
     atom   15 type  1   force =     0.00000000   -0.00000651    0.00000544
     atom   16 type  1   force =    -0.00000799    0.00000108   -0.00000964
     atom   17 type  1   force =     0.00000000    0.00001259   -0.00001594
     atom   18 type  1   force =     0.00000451    0.00000890   -0.00000099
     atom   19 type  1   force =     0.00000000    0.00000873   -0.00000754
     atom   20 type  1   force =    -0.00000451    0.00000890   -0.00000099
     atom   21 type  1   force =     0.00000000   -0.00001282   -0.00001223
     atom   22 type  1   force =     0.00000751    0.00000000   -0.00001091
     atom   23 type  1   force =     0.00000000   -0.00000972   -0.00000966
     atom   24 type  1   force =    -0.00000751    0.00000000   -0.00001091
     atom   25 type  1   force =     0.00000000    0.00001004   -0.00000193
     atom   26 type  1   force =     0.00001145   -0.00000497   -0.00000618
     atom   27 type  1   force =     0.00000000    0.00001298    0.00000085
     atom   28 type  1   force =    -0.00001145   -0.00000497   -0.00000618
     atom   29 type  1   force =     0.00000000    0.00000000    0.00000694
     atom   30 type  1   force =     0.00001722    0.00001704    0.00000811
     atom   31 type  1   force =     0.00000000    0.00000000    0.00000990
     atom   32 type  1   force =    -0.00001722    0.00001704    0.00000811
     atom   33 type  1   force =     0.00000000   -0.00001004   -0.00000193
     atom   34 type  1   force =     0.00001722   -0.00001704    0.00000811
     atom   35 type  1   force =     0.00000000   -0.00001298    0.00000085
     atom   36 type  1   force =    -0.00001722   -0.00001704    0.00000811
     atom   37 type  1   force =     0.00000000    0.00001282   -0.00001223
     atom   38 type  1   force =     0.00001145    0.00000497   -0.00000618
     atom   39 type  1   force =     0.00000000    0.00000972   -0.00000966
     atom   40 type  1   force =    -0.00001145    0.00000497   -0.00000618
     atom   41 type  1   force =     0.00000000    0.00000000    0.00000000
     atom   42 type  1   force =     0.00000995   -0.00001205    0.00000000
     atom   43 type  1   force =     0.00000000    0.00000000    0.00000000
     atom   44 type  1   force =    -0.00000995   -0.00001205    0.00000000
     atom   45 type  1   force =     0.00000000   -0.00000376    0.00000000
     atom   46 type  1   force =     0.00001507    0.00001775    0.00000000
     atom   47 type  1   force =     0.00000000    0.00000063    0.00000000
     atom   48 type  1   force =    -0.00001507    0.00001775    0.00000000
     atom   49 type  1   force =     0.00000000    0.00001991    0.00000000
     atom   50 type  1   force =     0.00001993    0.00000000    0.00000000
     atom   51 type  1   force =     0.00000000    0.00002326    0.00000000
     atom   52 type  1   force =    -0.00001993    0.00000000    0.00000000
     atom   53 type  1   force =     0.00000000   -0.00001991    0.00000000
     atom   54 type  1   force =     0.00001507   -0.00001775    0.00000000
     atom   55 type  1   force =     0.00000000   -0.00002326    0.00000000
     atom   56 type  1   force =    -0.00001507   -0.00001775    0.00000000
     atom   57 type  1   force =     0.00000000    0.00000376    0.00000000
     atom   58 type  1   force =     0.00000995    0.00001205    0.00000000
     atom   59 type  1   force =     0.00000000   -0.00000063    0.00000000
     atom   60 type  1   force =    -0.00000995    0.00001205    0.00000000
[...]
     atom   86 type  1   force =     0.00000799   -0.00000108    0.00000964
     atom   87 type  1   force =     0.00000000   -0.00000873    0.00000754
     atom   88 type  1   force =    -0.00000799   -0.00000108    0.00000964
     atom   89 type  1   force =     0.00000000    0.00000463    0.00000483
     atom   90 type  1   force =     0.00000872    0.00000000   -0.00000736
     atom   91 type  1   force =     0.00000000    0.00000651   -0.00000544
     atom   92 type  1   force =    -0.00000872    0.00000000   -0.00000736
     atom   93 type  1   force =     0.00000000   -0.00000463    0.00000483
     atom   94 type  1   force =     0.00000799    0.00000108    0.00000964
     atom   95 type  1   force =     0.00000000   -0.00000651   -0.00000544
     atom   96 type  1   force =    -0.00000799    0.00000108    0.00000964
     atom   97 type  1   force =     0.00000000    0.00001259    0.00001594
     atom   98 type  1   force =     0.00000451    0.00000890    0.00000099
     atom   99 type  1   force =     0.00000000    0.00000873    0.00000754
     atom  100 type  1   force =    -0.00000451    0.00000890    0.00000099

     Total force =     0.000149     Total SCF correction =     0.000049
     SCF correction compared to forces is large: reduce conv_thr to get better values

     bfgs converged in  16 scf cycles and  15 bfgs steps
     (criteria: energy <  1.0E-06, force <  1.0E-05)

     End of BFGS Geometry Optimization

     Final energy   =  -12150.8005609884 Ry
Begin final coordinates

ATOMIC_POSITIONS (angstrom)
Cu       0.000000000   0.000000000   8.829125450
Cu       1.844496749   1.703944485   8.829129733
Cu       3.689036991   0.000000000   8.829108282
Cu       5.533577234   1.703944485   8.829129733
Cu       0.000000000   3.407852813   8.829169728
Cu       1.844473915   5.111682166   8.829112533
Cu       3.689036991   3.407844337   8.829138927
Cu       5.533600068   5.111682166   8.829112533
Cu       0.000000000   6.815547685   8.829081614
Cu       1.844452291   8.519466000   8.829033812
Cu       3.689036991   6.815549938   8.829051108
Cu       5.533621692   8.519466000   8.829033812
Cu       0.000000000  10.223384315   8.829081614
Cu       1.844473915  11.927249834   8.829112533
Cu       3.689036991  10.223382062   8.829051108
Cu       5.533600068  11.927249834   8.829112533
Cu       0.000000000  13.631079187   8.829169728
Cu       1.844496749  15.334987515   8.829129733
Cu       3.689036991  13.631087663   8.829138927
Cu       5.533577234  15.334987515   8.829129733
Cu       0.000000000   1.703931617  10.660705205
Cu       1.844502597   0.000000000  10.660702619
Cu       3.689036991   1.703930677  10.660694851
Cu       5.533571386   0.000000000  10.660702619
Cu       0.000000000   5.111662627  10.660664230
Cu       1.844483222   3.407817613  10.660677170
Cu       3.689036991   5.111661458  10.660649782
Cu       5.533590761   3.407817613  10.660677170
Cu       0.000000000   8.519466000  10.660620342
Cu       1.844451364   6.815538669  10.660616826
Cu       3.689036991   8.519466000  10.660605754
Cu       5.533622619   6.815538669  10.660616826
Cu       0.000000000  11.927269373  10.660664230
Cu       1.844451364  10.223393331  10.660616826
Cu       3.689036991  11.927270542  10.660649782
Cu       5.533622619  10.223393331  10.660616826
Cu       0.000000000  15.335000383  10.660705205
Cu       1.844483222  13.631114387  10.660677170
Cu       3.689036991  15.335001323  10.660694851
Cu       5.533590761  13.631114387  10.660677170
Cu       0.000000000   0.000000000  12.500000000
Cu       1.844495097   1.703938538  12.500000000
Cu       3.689036991   0.000000000  12.500000000
Cu       5.533578886   1.703938538  12.500000000
Cu       0.000000000   3.407813017  12.500000000
Cu       1.844466556   5.111642522  12.500000000
Cu       3.689036991   3.407808501  12.500000000
Cu       5.533607427   5.111642522  12.500000000
Cu       0.000000000   6.815525900  12.500000000
Cu       1.844443343   8.519466000  12.500000000
Cu       3.689036991   6.815523275  12.500000000
Cu       5.533630640   8.519466000  12.500000000
Cu       0.000000000  10.223406100  12.500000000
Cu       1.844466556  11.927289478  12.500000000
Cu       3.689036991  10.223408725  12.500000000
Cu       5.533607427  11.927289478  12.500000000
Cu       0.000000000  13.631118983  12.500000000
Cu       1.844495097  15.334993462  12.500000000
Cu       3.689036991  13.631123499  12.500000000
Cu       5.533578886  15.334993462  12.500000000
[...]
Cu       1.844473915   5.111682166  16.170902130
Cu       3.689036991   3.407844337  16.170875736
Cu       5.533600068   5.111682166  16.170902130
Cu       0.000000000   6.815547685  16.170933049
Cu       1.844452291   8.519466000  16.170980851
Cu       3.689036991   6.815549938  16.170963555
Cu       5.533621692   8.519466000  16.170980851
Cu       0.000000000  10.223384315  16.170933049
Cu       1.844473915  11.927249834  16.170902130
Cu       3.689036991  10.223382062  16.170963555
Cu       5.533600068  11.927249834  16.170902130
Cu       0.000000000  13.631079187  16.170844935
Cu       1.844496749  15.334987515  16.170884930
Cu       3.689036991  13.631087663  16.170875736
Cu       5.533577234  15.334987515  16.170884930
End final coordinates

     Writing output data file copper.save

     General routines

     Parallel routines

   This run was terminated on:  20:20:10  21Nov2016

   JOB DONE.