     Program PWSCF v.5.4.0 starts on 26Apr2017 at 20: 8:44

     Current dimensions of program PWSCF are:
     Max number of different atomic species (ntypx) = 10
     Max number of k-points (npk) =  40000
     Max angular momentum in pseudopotentials (lmaxx) =  3

     Parameters for Dispersion Correction:
       atom      VdW radius       C_6

        Cu         2.952        374.666
        C_h        2.744         60.710
        C          2.744         60.710
        H          1.892          4.857

     bravais-lattice index     =            0
     lattice parameter (alat)  =      13.9425  a.u.
     unit-cell volume          =   21209.0878 (a.u.)^3
     number of atoms/cell      =          151
     number of atomic types    =            4
     number of electrons       =      1298.00
     number of Kohn-Sham states=          779
     kinetic-energy cutoff     =      80.0000  Ry
     charge density cutoff     =     320.0000  Ry
     convergence threshold     =      1.0E-08
     mixing beta               =       0.7000
     number of iterations used =            8  local-TF  mixing
     Exchange-correlation      =  SLA  PW   PBE  PBE ( 1  4  3  4 0 0)

     celldm(1)=  13.942539  celldm(2)=   0.000000  celldm(3)=   0.000000
     celldm(4)=   0.000000  celldm(5)=   0.000000  celldm(6)=   0.000000

     crystal axes: (cart. coord. in units of alat)
               a(1) = (   1.000000   0.000000   0.000000 )
               a(2) = (   0.000000   2.309401   0.000000 )
               a(3) = (   0.000000   0.000000   3.388418 )

     reciprocal axes: (cart. coord. in units 2 pi/alat)
               b(1) = (  1.000000  0.000000  0.000000 )
               b(2) = (  0.000000  0.433013  0.000000 )
               b(3) = (  0.000000  0.000000  0.295123 )

     PseudoPot. # 1 for Cu read from file:
     /home/549/hxw549/Short/pseudopotentials/Cu.pbe-n-van_ak.UPF
     MD5 check sum: 601f7c30f7467666bec936e0661ce3e1
     Pseudo is Ultrasoft + core correction, Zval = 11.0
     Generated by new atomic code, or converted to UPF format
     Using radial grid of  867 points,  6 beta functions with:
                l(1) =   0
                l(2) =   0
                l(3) =   1
                l(4) =   1
                l(5) =   2
                l(6) =   2
     Q(r) pseudized with  8 coefficients,  rinner =    1.400   1.400   1.400
                                                       1.400   1.400

     PseudoPot. # 2 for C  read from file:
     /home/549/hxw549/Short/pseudopotentials/C.star1s-pbe-mt_gipaw.UPF
     MD5 check sum: ef0cb3dee31bd9e4ba2a832a2c716264
     Pseudo is Norm-conserving, Zval =  5.0
     Generated by new atomic code, or converted to UPF format
     Using radial grid of 1073 points,  1 beta functions with:
                l(1) =   0

     PseudoPot. # 3 for C  read from file:
     /home/549/hxw549/Short/pseudopotentials/C.pbe-mt_gipaw.UPF
     MD5 check sum: 5ac2f21f2c440b14befe521540822c15
     Pseudo is Norm-conserving, Zval =  4.0
     Generated by new atomic code, or converted to UPF format
     Using radial grid of 1073 points,  1 beta functions with:
                l(1) =   0

     PseudoPot. # 4 for H  read from file:
     /home/549/hxw549/Short/pseudopotentials/H.pbe-van_ak.UPF
     MD5 check sum: 077eb6d537518a38cb46c6de387227b7
     Pseudo is Ultrasoft, Zval =  1.0
     Generated by new atomic code, or converted to UPF format
     Using radial grid of  615 points,  1 beta functions with:
                l(1) =   0
     Q(r) pseudized with  8 coefficients,  rinner =    0.800

     atomic species   valence    mass     pseudopotential
        Cu            11.00    63.54600     Cu( 1.00)
        C_h            5.00    12.01070     C ( 1.00)
        C              4.00    12.01070     C ( 1.00)
        H              1.00     1.00783     H ( 1.00)

     No symmetry found

   Cartesian axes

     site n.     atom                  positions (alat units)
         1           Cu  tau(   1) = (   0.0023701   0.0005531   0.9912775  )
         2           Cu  tau(   2) = (   0.2522943   0.2298133   0.9926653  )
         3           Cu  tau(   3) = (   0.5025296   0.0001495   0.9914819  )
         4           Cu  tau(   4) = (   0.7524013   0.2299767   0.9924321  )
         5           Cu  tau(   5) = (   0.0025375   0.4601610   0.9926740  )
         6           Cu  tau(   6) = (   0.2531029   0.6915518   0.9925774  )
         7           Cu  tau(   7) = (   0.5026857   0.4598738   0.9931577  )
         8           Cu  tau(   8) = (   0.7528923   0.6915806   0.9923958  )
         9           Cu  tau(   9) = (   0.0033284   0.9235327   0.9914067  )
        10           Cu  tau(  10) = (   0.2536458   1.1551632   0.9916268  )
        11           Cu  tau(  11) = (   0.5031110   0.9237667   0.9921888  )
        12           Cu  tau(  12) = (   0.7532464   1.1549911   0.9918572  )
        13           Cu  tau(  13) = (   0.0031228   1.3872533   0.9902750  )
        14           Cu  tau(  14) = (   0.2531675   1.6194281   0.9899745  )
        15           Cu  tau(  15) = (   0.5035730   1.3876186   0.9919566  )
        16           Cu  tau(  16) = (   0.7530729   1.6196848   0.9896121  )
        17           Cu  tau(  17) = (   0.0031753   1.8498056   0.9901986  )
        18           Cu  tau(  18) = (   0.2527161   2.0803759   0.9900461  )
        19           Cu  tau(  19) = (   0.5026297   1.8505913   0.9887375  )
        20           Cu  tau(  20) = (   0.7525822   2.0801547   0.9906741  )
        21           Cu  tau(  21) = (   0.0029714   0.2294365   1.2412071  )
        22           Cu  tau(  22) = (   0.2530781  -0.0006502   1.2409225  )
        23           Cu  tau(  23) = (   0.5031218   0.2294308   1.2412588  )
        24           Cu  tau(  24) = (   0.7530282  -0.0002383   1.2413913  )
        25           Cu  tau(  25) = (   0.0037474   0.6915272   1.2388332  )
        26           Cu  tau(  26) = (   0.2534508   0.4599901   1.2402593  )
        27           Cu  tau(  27) = (   0.5034705   0.6915691   1.2392123  )
        28           Cu  tau(  28) = (   0.7531709   0.4594197   1.2392921  )
        29           Cu  tau(  29) = (   0.0044018   1.1568475   1.2366386  )
        30           Cu  tau(  30) = (   0.2539968   0.9236930   1.2387872  )
        31           Cu  tau(  31) = (   0.5040972   1.1559828   1.2392214  )
        32           Cu  tau(  32) = (   0.7544796   0.9232473   1.2393972  )
        33           Cu  tau(  33) = (   0.0041560   1.6193309   1.2388143  )
        34           Cu  tau(  34) = (   0.2536870   1.3888299   1.2368786  )
        35           Cu  tau(  35) = (   0.5035967   1.6211676   1.2364274  )
        36           Cu  tau(  36) = (   0.7545803   1.3894447   1.2365008  )
        37           Cu  tau(  37) = (   0.0032782   2.0794921   1.2408876  )
        38           Cu  tau(  38) = (   0.2531897   1.8496993   1.2398460  )
        39           Cu  tau(  39) = (   0.5034349   2.0792346   1.2399824  )
        40           Cu  tau(  40) = (   0.7540034   1.8497362   1.2391936  )
        41           Cu  tau(  41) = (   0.0038687  -0.0013266   1.4920112  )
        42           Cu  tau(  42) = (   0.2541654   0.2276460   1.4894066  )
        43           Cu  tau(  43) = (   0.5047584  -0.0006080   1.4915878  )
        44           Cu  tau(  44) = (   0.7547324   0.2291704   1.4909609  )
        45           Cu  tau(  45) = (   0.0039754   0.4590212   1.4890642  )
        46           Cu  tau(  46) = (   0.2548312   0.6910340   1.4878485  )
        47           Cu  tau(  47) = (   0.5047712   0.4598869   1.4896285  )
        48           Cu  tau(  48) = (   0.7553903   0.6899110   1.4873405  )
        49           Cu  tau(  49) = (   0.0070936   0.9252700   1.4857464  )
        50           Cu  tau(  50) = (   0.2544914   1.1583113   1.4855396  )
        51           Cu  tau(  51) = (   0.5052697   0.9225779   1.4862390  )
        52           Cu  tau(  52) = (   0.7578866   1.1594260   1.4829290  )
        53           Cu  tau(  53) = (   0.0061710   1.3887674   1.4884912  )
        54           Cu  tau(  54) = (   0.2537878   1.6193626   1.4889766  )
        55           Cu  tau(  55) = (   0.5051385   1.3936799   1.4817811  )
        56           Cu  tau(  56) = (   0.7568507   1.6201381   1.4883657  )
        57           Cu  tau(  57) = (   0.0050292   1.8504379   1.4908492  )
        58           Cu  tau(  58) = (   0.2543320   2.0794405   1.4914776  )
        59           Cu  tau(  59) = (   0.5047577   1.8492729   1.4900454  )
        60           Cu  tau(  60) = (   0.7543994   2.0791456   1.4919649  )
[...]
       104           C   tau( 104) = (   0.1556573   0.3820899   2.4221379  )
       105           C   tau( 105) = (   0.3226180   0.0944783   2.3904494  )
       106           C   tau( 106) = (   0.3223383   0.2862627   2.4088131  )
       107           C   tau( 107) = (   0.4895262  -0.0019479   2.3822011  )
       108           C   tau( 108) = (   0.4890551   0.3830602   2.4146001  )
       109           C   tau( 109) = (   0.6564742   0.0947236   2.3868576  )
       110           C   tau( 110) = (   0.6561136   0.2868244   2.4023497  )
       111           C   tau( 111) = (   0.8229854  -0.0018807   2.3819412  )
       112           C   tau( 112) = (   0.8228886   0.3824320   2.4140750  )
       113           C   tau( 113) = (  -0.0113374   0.6701957   2.4479895  )
       114           C   tau( 114) = (  -0.0122261   0.8629609   2.4539182  )
       115           C   tau( 115) = (   0.1552772   0.5730334   2.4485801  )
       116           C   tau( 116) = (   0.1541436   0.9597968   2.4617561  )
       117           C   tau( 117) = (   0.3213128   0.6692623   2.4599181  )
       118           C   tau( 118) = (   0.3184984   0.8611734   2.4642354  )
       119           C_h tau( 119) = (   0.4884460   0.5740072   2.4346705  )
       120           C   tau( 120) = (   0.4827484   0.9556609   2.3894952  )
       121           C   tau( 121) = (   0.4216377   0.9238752   2.1851263  )
       122           H   tau( 122) = (   0.4104643   0.7731797   2.1656364  )
       123           H   tau( 123) = (   0.2798076   0.9763551   2.1781611  )
       124           C   tau( 124) = (   0.6562846   0.6708059   2.4312793  )
       125           C   tau( 125) = (   0.6576716   0.8611452   2.4235509  )
       126           C   tau( 126) = (   0.8230035   0.5740997   2.4324330  )
       127           C   tau( 127) = (   0.8210756   0.9581713   2.4305772  )
       128           C   tau( 128) = (  -0.0108793   1.2468637   2.4107300  )
       129           C   tau( 129) = (  -0.0105860   1.4397120   2.3925802  )
       130           C   tau( 130) = (   0.1550752   1.1519598   2.4318622  )
       131           C   tau( 131) = (   0.1559600   1.5365928   2.3915931  )
       132           C   tau( 132) = (   0.3225252   1.2490795   2.4182764  )
       133           C   tau( 133) = (   0.3224784   1.4410472   2.4020022  )
       134           C   tau( 134) = (   0.4882033   1.1552145   2.4137647  )
       135           C   tau( 135) = (   0.4891463   1.5364117   2.3919873  )
       136           C   tau( 136) = (   0.6543677   1.2476657   2.4045687  )
       137           C   tau( 137) = (   0.6555603   1.4404126   2.3944468  )
       138           C   tau( 138) = (   0.8223089   1.1510513   2.4117753  )
       139           C   tau( 139) = (   0.8224651   1.5358903   2.3850960  )
       140           C   tau( 140) = (  -0.0103791   1.8251840   2.3752745  )
       141           C   tau( 141) = (  -0.0101573   2.0179628   2.3758076  )
       142           C   tau( 142) = (   0.1564209   1.7289726   2.3810649  )
       143           C   tau( 143) = (   0.1564182   2.1145480   2.3773901  )
       144           C   tau( 144) = (   0.3231115   1.8252836   2.3819357  )
       145           C   tau( 145) = (   0.3233013   2.0180263   2.3790683  )
       146           C   tau( 146) = (   0.4894996   1.7290179   2.3840607  )
       147           C   tau( 147) = (   0.4898444   2.1146176   2.3799633  )
       148           C   tau( 148) = (   0.6561199   1.8251554   2.3789644  )
       149           C   tau( 149) = (   0.6562931   2.0180054   2.3773154  )
       150           C   tau( 150) = (   0.8226788   1.7285066   2.3770501  )
       151           C   tau( 151) = (   0.8231952   2.1146619   2.3757520  )

     number of k points=     6  gaussian smearing, width (Ry)=  0.1000
                       cart. coord. in units 2pi/alat
        k(    1) = (   0.0000000   0.0000000   0.0000000), wk =   0.2500000
        k(    2) = (   0.0000000  -0.2165064   0.0000000), wk =   0.2500000
        k(    3) = (   0.2500000   0.0000000   0.0000000), wk =   0.5000000
        k(    4) = (   0.2500000  -0.2165064   0.0000000), wk =   0.5000000
        k(    5) = (  -0.5000000   0.0000000   0.0000000), wk =   0.2500000
        k(    6) = (  -0.5000000  -0.2165064   0.0000000), wk =   0.2500000

     Largest allocated arrays     est. size (Mb)     dimensions
     Largest temporary arrays     est. size (Mb)     dimensions

     Initial potential from superposition of free atoms
     Check: negative starting charge=   -0.001830

     starting charge 1272.31749, renormalised to 1298.00000

     negative rho (up, down):  1.867E-03 0.000E+00
     Starting wfc are 1294 randomized atomic wfcs

     Self-consistent Calculation

     iteration #  1     ecut=    80.00 Ry     beta=0.70
     Davidson diagonalization with overlap
     c_bands:  2 eigenvalues not converged
     c_bands:  3 eigenvalues not converged
     c_bands:  3 eigenvalues not converged
     c_bands:  1 eigenvalues not converged
     c_bands:  3 eigenvalues not converged
     c_bands:  2 eigenvalues not converged
     ethr =  1.00E-04,  avg # of iterations = 40.0

     negative rho (up, down):  2.721E+01 0.000E+00

     total energy              =   -9478.56048756 Ry
     Harris-Foulkes estimate   =  -17589.24879900 Ry
     estimated scf accuracy    <  189420.72804374 Ry

     iteration #  2     ecut=    80.00 Ry     beta=0.70
     Davidson diagonalization with overlap
     ethr =  1.00E-02,  avg # of iterations = 13.7

[...]

     iteration # 37     ecut=    80.00 Ry     beta=0.70
     Davidson diagonalization with overlap
     c_bands:  1 eigenvalues not converged
     c_bands:  1 eigenvalues not converged
     c_bands:  1 eigenvalues not converged
     ethr =  3.76E-09,  avg # of iterations = 14.3

[...]

     total energy              =  -12720.71212822 Ry
     Harris-Foulkes estimate   =  -12720.71212823 Ry
     estimated scf accuracy    <       0.00000002 Ry

     iteration # 44     ecut=    80.00 Ry     beta=0.70
     Davidson diagonalization with overlap
     ethr =  1.61E-12,  avg # of iterations =  2.2

     negative rho (up, down):  2.036E-03 0.000E+00

     End of self-consistent calculation

          k = 0.0000 0.0000 0.0000 (256287 PWs)   bands (ev):

   -17.0550 -16.1397 -15.9718 -15.2751 -14.9568 -14.6535 -14.5119 -14.1620
   -14.1085 -14.0541 -13.9608 -13.4559 -13.2005 -13.0116 -13.0000 -12.9841
   -12.9475 -11.6758 -11.4036 -11.3460 -11.2776 -11.1012 -10.4166  -9.9166
    -9.6203  -9.6068  -9.4016  -9.2603  -8.8381  -8.5959  -8.5172  -8.4153
    -7.9198  -7.7698  -7.6576  -7.4961  -7.4614  -7.4268  -7.3958  -7.3124
    -6.2343  -6.2200  -6.0522  -5.9774  -5.9233  -5.8318  -5.7753  -5.7417
    -5.7035  -5.4610  -5.4355  -5.0043  -4.8925  -4.7508  -4.6692  -4.6473
    -4.4941  -4.4074  -4.3717  -4.2152  -4.1684  -4.0173  -3.9378  -3.9136
    -3.8554  -3.7258  -3.5403  -3.4970  -3.4419  -3.3992  -3.3730  -3.3425
    -3.2985  -3.2378  -3.1991  -3.0609  -3.0332  -3.0123  -2.9867  -2.9818
    -2.9631  -2.9556  -2.9365  -2.8760  -2.8005  -2.7464  -2.7212  -2.6995
    -2.6621  -2.5976  -2.5572  -2.5325  -2.4684  -2.4010  -2.3271  -2.3029
    -2.2719  -2.2584  -2.2445  -2.1616  -2.1539  -2.1334  -2.1274  -2.1248
    -2.1191  -2.1177  -2.0977  -2.0288  -1.9964  -1.9910  -1.9873  -1.9847
    -1.9467  -1.9209  -1.8140  -1.7858  -1.7587  -1.7474  -1.7309  -1.7085
    -1.6979  -1.6905  -1.6671  -1.6453  -1.6415  -1.6316  -1.6260  -1.5897
    -1.5597  -1.5450  -1.5420  -1.5273  -1.5238  -1.5129  -1.4989  -1.4927
    -1.4913  -1.4809  -1.4732  -1.4451  -1.4193  -1.3971  -1.3827  -1.3528
    -1.3245  -1.3135  -1.2929  -1.2718  -1.2642  -1.2356  -1.2313  -1.2207
    -1.2164  -1.1908  -1.1790  -1.1647  -1.1578  -1.1412  -1.1335  -1.1208
    -1.0650  -1.0538  -1.0490  -1.0376  -1.0300  -1.0215  -1.0158  -1.0136
    -1.0047  -0.9994  -0.9958  -0.9910  -0.9877  -0.9832  -0.9693  -0.9668
    -0.9552  -0.9341  -0.9201  -0.9167  -0.9107  -0.8969  -0.8947  -0.8866
    -0.8781  -0.8728  -0.8458  -0.8446  -0.8392  -0.8363  -0.8332  -0.8315
    -0.8265  -0.8250  -0.8237  -0.8191  -0.8182  -0.8174  -0.8138  -0.8084
    -0.8076  -0.8025  -0.7823  -0.7729  -0.7616  -0.7522  -0.7270  -0.6977
    -0.6653  -0.6588  -0.6553  -0.6526  -0.6394  -0.6294  -0.6146  -0.6119
    -0.6041  -0.5930  -0.5851  -0.5720  -0.5683  -0.5659  -0.5593  -0.5463
    -0.5381  -0.5368  -0.5345  -0.5325  -0.5233  -0.5138  -0.5061  -0.5002
    -0.4859  -0.4605  -0.4557  -0.4243  -0.4166  -0.4118  -0.4059  -0.3961
    -0.3942  -0.3843  -0.3814  -0.3792  -0.3764  -0.3750  -0.3696  -0.3686
    -0.3629  -0.3595  -0.3566  -0.3555  -0.3489  -0.3351  -0.3279  -0.3212
    -0.3082  -0.2777  -0.2765  -0.2710  -0.2656  -0.2609  -0.2512  -0.2375
    -0.2372  -0.2343  -0.2298  -0.2239  -0.2229  -0.2167  -0.2128  -0.2036
    -0.2030  -0.1997  -0.1993  -0.1910  -0.1876  -0.1826  -0.1756  -0.1720
    -0.1699  -0.1633  -0.1625  -0.1540  -0.1476  -0.1454  -0.1331  -0.1132
    -0.0986  -0.0954  -0.0878  -0.0818  -0.0692  -0.0605  -0.0567  -0.0454
    -0.0373  -0.0361  -0.0326  -0.0273  -0.0264  -0.0217  -0.0146  -0.0006
     0.0079   0.0087   0.0151   0.0265   0.0305   0.0335   0.0397   0.0450
     0.0504   0.0541   0.0571   0.0589   0.0649   0.0681   0.0723   0.0759
     0.0789   0.0838   0.0868   0.0909   0.0958   0.0973   0.1080   0.1159
     0.1193   0.1267   0.1346   0.1352   0.1572   0.1617   0.1658   0.1790
     0.1910   0.1986   0.2074   0.2252   0.2311   0.2442   0.2527   0.2569
     0.2727   0.2764   0.2820   0.2835   0.2882   0.2913   0.3057   0.3116
     0.3217   0.3242   0.3400   0.3579   0.3604   0.3704   0.3722   0.3751
     0.3784   0.3920   0.4025   0.4058   0.4095   0.4168   0.4225   0.4362
     0.4383   0.4450   0.4503   0.4633   0.4656   0.4712   0.4821   0.4851
     0.4900   0.5024   0.5107   0.5141   0.5220   0.5265   0.5332   0.5364
     0.5421   0.5435   0.5489   0.5529   0.5605   0.5616   0.5667   0.5728
     0.5736   0.5779   0.5819   0.5845   0.5898   0.5914   0.5935   0.5993
     0.6021   0.6107   0.6176   0.6333   0.6350   0.6396   0.6517   0.6626
     0.6671   0.6704   0.6763   0.6808   0.6860   0.6884   0.6941   0.6972
     0.7016   0.7041   0.7078   0.7108   0.7167   0.7173   0.7204   0.7264
     0.7271   0.7363   0.7396   0.7435   0.7527   0.7600   0.7615   0.7730
     0.7737   0.7763   0.7771   0.7784   0.7817   0.7840   0.7916   0.7951
     0.7969   0.8010   0.8218   0.8294   0.8334   0.8400   0.8442   0.8450
     0.8530   0.8562   0.8699   0.8770   0.8804   0.8844   0.8938   0.8974
     0.9059   0.9092   0.9119   0.9216   0.9239   0.9288   0.9358   0.9395
     0.9445   0.9491   0.9596   0.9610   0.9654   0.9705   0.9727   0.9798
     0.9844   0.9913   0.9925   1.0067   1.0085   1.0102   1.0151   1.0175
[...]
     3.9721   4.0040   4.0218   4.0234   4.0291   4.0325   4.0786   4.1090
     4.1624   4.2346   4.2593   4.3247   4.4372   4.7416   4.7673   4.8391
     4.9448   5.0268   5.0459   5.3179   5.3370   5.4020   5.4760   5.7187
     5.7238   5.7730   5.7997   5.8962   5.9447   5.9938   6.2299   6.3507
     6.4040   6.4239   6.4485   6.4661   6.4835   6.5288   6.5939   6.6098
     6.7145   6.7475   6.8039   6.8112   6.8266   6.8441   6.9158   6.9208
     7.0298   7.0691   7.1100   7.2098   7.3690   7.3867   7.4128   7.4787
     7.5580   7.5982   7.6553   7.6955   7.7221   7.7371   7.9413   8.0715
     8.0995   8.1491   8.1648   8.2132   8.2830   8.3172   8.3301   8.3354
     8.3585   8.3718   8.3803   8.4275   8.4332   8.4567   8.5536   8.5779
     8.6314   8.6480   8.7069   8.7322   8.7592   8.8076   8.8454   8.8498
     8.8662   8.8913   9.0229   9.0484   9.0756   9.0943   9.1549   9.1719
     9.2403   9.2418   9.2827   9.3517   9.4170   9.5097   9.5571   9.5615
     9.5976   9.6934   9.7344   9.7860   9.8604   9.9063   9.9392  10.0694
    10.0740  10.1303  10.1530

[...]

          k = 0.2500-0.2165 0.0000 (256316 PWs)   bands (ev):

[...]

          k =-0.5000 0.0000 0.0000 (256496 PWs)   bands (ev):

[...]

          k =-0.5000-0.2165 0.0000 (256328 PWs)   bands (ev):

   -16.9341 -15.8038 -15.7396 -15.6792 -15.2940 -15.1585 -15.0155 -14.9662
   -14.0058 -13.7238 -13.5680 -13.5463 -12.5276 -12.2666 -12.0212 -11.9048
   -11.8798 -11.6636 -11.5437 -11.4823 -11.4195 -11.4029 -11.3756 -11.2937
   -10.0763  -9.8806  -9.7556  -9.6244  -9.5186  -8.8987  -8.7358  -8.6715
    -8.6354  -8.1224  -8.0830  -7.9080  -7.8858  -6.3866  -6.1269  -6.0585
    -5.8554  -5.6840  -5.5201  -5.2652  -5.2173  -5.1902  -5.1579  -5.1555
    -5.1484  -5.1282  -5.0704  -4.9384  -4.9046  -4.7019  -4.4565  -4.3422
    -4.3166  -4.2771  -4.2207  -4.1942  -4.1790  -4.1711  -4.1586  -4.1262
    -4.1092  -4.0652  -4.0025  -3.8719  -3.8477  -3.8178  -3.7877  -3.7688
    -3.6894  -3.6285  -3.6001  -3.5620  -3.5221  -3.4013  -3.3840  -3.3543
    -3.2481  -3.2023  -3.1294  -3.0822  -2.9977  -2.9009  -2.5797  -2.5567
    -2.5497  -2.5456  -2.5310  -2.5274  -2.5120  -2.5016  -2.4798  -2.4376
    -2.3646  -2.3305  -2.2399  -2.1114  -2.0608  -2.0543  -2.0428  -2.0292
    -2.0136  -2.0064  -1.9976  -1.9579  -1.9379  -1.9141  -1.8867  -1.7831
    -1.7785  -1.7696  -1.7617  -1.6367  -1.6257  -1.5784  -1.5667  -1.5151
    -1.4866  -1.4728  -1.4652  -1.4590  -1.4510  -1.4481  -1.4357  -1.4236
    -1.4159  -1.4128  -1.4054  -1.4044  -1.4019  -1.3898  -1.3623  -1.3586
    -1.3571  -1.3566  -1.3520  -1.3500  -1.3462  -1.3420  -1.3394  -1.3355
    -1.3335  -1.3297  -1.3230  -1.2849  -1.2838  -1.2595  -1.2425  -1.2214
    -1.2120  -1.2047  -1.1826  -1.1714  -1.1694  -1.1631  -1.1584  -1.1514
    -1.1460  -1.1304  -1.1182  -1.1150  -1.1060  -1.1017  -1.0974  -1.0931
    -1.0916  -1.0890  -1.0784  -1.0739  -1.0685  -1.0546  -1.0437  -1.0320
    -1.0309  -1.0251  -1.0223  -1.0195  -1.0184  -1.0112  -1.0110  -1.0101
    -1.0059  -1.0041  -0.9869  -0.9741  -0.9654  -0.9130  -0.8704  -0.8574
    -0.8549  -0.8367  -0.8326  -0.8300  -0.8255  -0.8249  -0.8112  -0.7779
    -0.7575  -0.7463  -0.7458  -0.7398  -0.7358  -0.7315  -0.7288  -0.7255
    -0.7232  -0.7207  -0.7007  -0.6869  -0.6771  -0.6741  -0.6685  -0.6580
    -0.6562  -0.6506  -0.6449  -0.6400  -0.6364  -0.6299  -0.6237  -0.5685
    -0.5498  -0.5446  -0.5444  -0.5304  -0.5279  -0.5224  -0.5131  -0.4793
    -0.4731  -0.4675  -0.4586  -0.4506  -0.4292  -0.4209  -0.4162  -0.4057
    -0.4029  -0.3998  -0.3974  -0.3915  -0.3859  -0.3803  -0.3759  -0.3709
    -0.3672  -0.3564  -0.3534  -0.3403  -0.3243  -0.3223  -0.3072  -0.2817
    -0.2645  -0.2534  -0.2461  -0.2432  -0.2387  -0.2323  -0.2304  -0.2261
    -0.2188  -0.2127  -0.2118  -0.2074  -0.1647  -0.1574  -0.1480  -0.1412
    -0.1385  -0.1304  -0.1282  -0.1262  -0.1217  -0.1203  -0.1123  -0.1099
    -0.1012  -0.0944  -0.0900  -0.0859  -0.0850  -0.0783  -0.0752  -0.0745
    -0.0653  -0.0646  -0.0595  -0.0547  -0.0457  -0.0353  -0.0163  -0.0053
    -0.0025   0.0117   0.0177   0.0320   0.0407   0.0489   0.0532   0.0759
     0.0813   0.0864   0.0906   0.0972   0.0990   0.1031   0.1059   0.1087
     0.1109   0.1127   0.1144   0.1199   0.1216   0.1261   0.1329   0.1350
     0.1367   0.1386   0.1398   0.1427   0.1447   0.1458   0.1489   0.1537
     0.1553   0.1569   0.1594   0.1754   0.1805   0.1819   0.1829   0.1889
     0.1932   0.1973   0.2057   0.2105   0.2295   0.2347   0.2417   0.2495
     0.2518   0.2620   0.2653   0.2725   0.2771   0.2994   0.3256   0.3411
     0.3429   0.3494   0.3526   0.3630   0.3666   0.3734   0.3750   0.3763
     0.3830   0.3858   0.3863   0.3916   0.3942   0.3997   0.4002   0.4039
     0.4045   0.4073   0.4135   0.4182   0.4237   0.4252   0.4332   0.4391
     0.4513   0.4574   0.4628   0.4649   0.4725   0.4821   0.4918   0.4945
     0.4956   0.5005   0.5006   0.5041   0.5077   0.5135   0.5245   0.5298
     0.5324   0.5387   0.5414   0.5478   0.5517   0.5557   0.5605   0.5671
     0.5689   0.5741   0.5786   0.5910   0.5936   0.5971   0.5996   0.6034
     0.6053   0.6101   0.6119   0.6138   0.6155   0.6183   0.6206   0.6253
     0.6299   0.6359   0.6399   0.6463   0.6553   0.6603   0.6691   0.6777
     0.6911   0.7018   0.7041   0.7065   0.7077   0.7136   0.7207   0.7234
     0.7274   0.7334   0.7385   0.7444   0.7452   0.7480   0.7523   0.7537
     0.7586   0.7607   0.7626   0.7668   0.7728   0.7820   0.7912   0.8024
     0.8110   0.8136   0.8255   0.8323   0.8384   0.8458   0.8474   0.8511
     0.8570   0.8606   0.8734   0.8822   0.8841   0.8889   0.8909   0.8964
     0.9051   0.9104   0.9305   0.9433   0.9470   0.9553   0.9648   0.9696
     0.9837   0.9883   0.9931   1.0094   1.0182   1.0257   1.0293   1.0335
[...]
     4.3002   4.3283   4.3464   4.3971   4.4400   4.5366   4.5628   4.5909
     4.6052   4.6116   4.7199   4.7632   4.8545   4.9132   4.9377   4.9925
     5.0640   5.0723   5.1265   5.1561   5.1625   5.1840   5.2126   5.2545
     5.2716   5.3030   5.3289   5.3419   5.3779   5.4580   5.4658   5.6309
     5.6908   5.7300   5.7500   5.7619   5.7678   5.7841   5.8284   5.8748
     5.8895   5.8944   6.1651   6.7518   6.7634   6.8549   6.8599   7.0045
     7.0520   7.0879   7.1004   7.1391   7.1709   7.1873   7.1967   7.2055
     7.2329   7.2920   7.2945   7.3558   7.3737   7.3992   7.4321   7.4474
     7.5423   7.5655   7.6344   7.7866   7.8299   7.8882   7.9429   7.9983
     8.0249   8.0470   8.2214   8.2480   8.2829   8.3140   8.3280   8.3544
     8.4066   8.4197   8.7699   8.8479   8.8810   8.8855   8.9128   8.9269
     8.9300   8.9376   8.9598   8.9609   8.9983   9.0296   9.0936   9.1407
     9.1425   9.1477   9.1526   9.1856   9.3679   9.3863   9.3906   9.4424
     9.4938   9.5179   9.5321   9.5426   9.5554   9.5913   9.5972   9.9446
     9.9837   9.9946  10.0150

     the Fermi energy is     3.3522 ev

!    total energy              =  -12720.71212818 Ry
     Harris-Foulkes estimate   =  -12720.71212823 Ry
     estimated scf accuracy    <          5.8E-09 Ry

     The total energy is the sum of the following terms:

     one-electron contribution = -107938.67712626 Ry
     hartree contribution      =   55334.83400366 Ry
     xc contribution           =   -4452.54461440 Ry
     ewald contribution        =   44342.02850767 Ry
     Dispersion Correction     =      -2.98925395 Ry
     smearing contrib. (-TS)   =      -3.36364489 Ry

     convergence has been achieved in  44 iterations

     Writing output data file gc.save

     General routines

     Parallel routines

   This run was terminated on:  23:50:24  26Apr2017

   JOB DONE.