     Program PWSCF v.5.4.0 starts on 12May2017 at 10:52: 4

     Current dimensions of program PWSCF are:
     Max number of different atomic species (ntypx) = 10
     Max number of k-points (npk) =  40000
     Max angular momentum in pseudopotentials (lmaxx) =  3
     WARNING: atomic wfc #  2 for atom type 4 has zero norm
     WARNING: atomic wfc #  4 for atom type 4 has zero norm
     WARNING: atomic wfc #  5 for atom type 4 has zero norm

     Parameters for Dispersion Correction:
       atom      VdW radius       C_6

        Cu         2.952        374.666
        C_h        2.744         60.710
        C          2.744         60.710
        O          2.536         24.284
        H          1.892          4.857

     bravais-lattice index     =            0
     lattice parameter (alat)  =      13.9425  a.u.
     unit-cell volume          =   21209.0878 (a.u.)^3
     number of atoms/cell      =          152
     number of atomic types    =            5
     number of electrons       =      1309.00
     number of Kohn-Sham states=          786
     kinetic-energy cutoff     =      80.0000  Ry
     charge density cutoff     =     320.0000  Ry
     convergence threshold     =      1.0E-08
     mixing beta               =       0.7000
     number of iterations used =            8  local-TF  mixing
     Exchange-correlation      =  SLA  PW   PBE  PBE ( 1  4  3  4 0 0)

     celldm(1)=  13.942539  celldm(2)=   0.000000  celldm(3)=   0.000000
     celldm(4)=   0.000000  celldm(5)=   0.000000  celldm(6)=   0.000000

     crystal axes: (cart. coord. in units of alat)
               a(1) = (   1.000000   0.000000   0.000000 )
               a(2) = (   0.000000   2.309401   0.000000 )
               a(3) = (   0.000000   0.000000   3.388418 )

     reciprocal axes: (cart. coord. in units 2 pi/alat)
               b(1) = (  1.000000  0.000000  0.000000 )
               b(2) = (  0.000000  0.433013  0.000000 )
               b(3) = (  0.000000  0.000000  0.295123 )

     PseudoPot. # 1 for Cu read from file:
     /home/549/hxw549/Short/pseudopotentials/Cu.pbe-n-van_ak.UPF
     MD5 check sum: 601f7c30f7467666bec936e0661ce3e1
     Pseudo is Ultrasoft + core correction, Zval = 11.0
     Generated by new atomic code, or converted to UPF format
     Using radial grid of  867 points,  6 beta functions with:
                l(1) =   0
                l(2) =   0
                l(3) =   1
                l(4) =   1
                l(5) =   2
                l(6) =   2
     Q(r) pseudized with  8 coefficients,  rinner =    1.400   1.400   1.400
                                                       1.400   1.400

     PseudoPot. # 2 for C  read from file:
     /home/549/hxw549/Short/pseudopotentials/C.star1s-pbe-mt_gipaw.UPF
     MD5 check sum: ef0cb3dee31bd9e4ba2a832a2c716264
     Pseudo is Norm-conserving, Zval =  5.0
     Generated by new atomic code, or converted to UPF format
     Using radial grid of 1073 points,  1 beta functions with:
                l(1) =   0

     PseudoPot. # 3 for C  read from file:
     /home/549/hxw549/Short/pseudopotentials/C.pbe-mt_gipaw.UPF
     MD5 check sum: 5ac2f21f2c440b14befe521540822c15
     Pseudo is Norm-conserving, Zval =  4.0
     Generated by new atomic code, or converted to UPF format
     Using radial grid of 1073 points,  1 beta functions with:
                l(1) =   0

     PseudoPot. # 4 for O  read from file:
     /home/549/hxw549/Short/pseudopotentials/O.pbe-van_gipaw.UPF
     MD5 check sum: 5ce2a047509d4f331db576c963e74b29
     Pseudo is Ultrasoft, Zval =  6.0
     Generated by new atomic code, or converted to UPF format
     Using radial grid of 1095 points,  4 beta functions with:
                l(1) =   0
                l(2) =   0
                l(3) =   1
                l(4) =   1
     Q(r) pseudized with 0 coefficients

     PseudoPot. # 5 for H  read from file:
     /home/549/hxw549/Short/pseudopotentials/H.pbe-van_ak.UPF
     MD5 check sum: 077eb6d537518a38cb46c6de387227b7
     Pseudo is Ultrasoft, Zval =  1.0
     Generated by new atomic code, or converted to UPF format
     Using radial grid of  615 points,  1 beta functions with:
                l(1) =   0
     Q(r) pseudized with  8 coefficients,  rinner =    0.800

     atomic species   valence    mass     pseudopotential
        Cu            11.00    63.54600     Cu( 1.00)
        C_h            5.00    12.01070     C ( 1.00)
        C              4.00    12.01070     C ( 1.00)
        O              6.00    15.99940     O ( 1.00)
        H              1.00     1.00783     H ( 1.00)

     No symmetry found

   Cartesian axes

     site n.     atom                  positions (alat units)
         1           Cu  tau(   1) = (   0.0000842  -0.0003681   0.9999582  )
         2           Cu  tau(   2) = (   0.2500548   0.2313457   0.9998843  )
         3           Cu  tau(   3) = (   0.5000576  -0.0002607   0.9999865  )
         4           Cu  tau(   4) = (   0.7500833   0.2313139   0.9998641  )
         5           Cu  tau(   5) = (   0.0000630   0.4624576   0.9996374  )
         6           Cu  tau(   6) = (   0.2500574   0.6931393   0.9991054  )
         7           Cu  tau(   7) = (   0.5000697   0.4624370   0.9995248  )
         8           Cu  tau(   8) = (   0.7500716   0.6931484   0.9991088  )
         9           Cu  tau(   9) = (   0.0000622   0.9236166   0.9988218  )
        10           Cu  tau(  10) = (   0.2500643   1.1539091   0.9989623  )
        11           Cu  tau(  11) = (   0.5000640   0.9235821   0.9987715  )
        12           Cu  tau(  12) = (   0.7500634   1.1539179   0.9989606  )
        13           Cu  tau(  13) = (   0.0000687   1.3841458   0.9994650  )
        14           Cu  tau(  14) = (   0.2500837   1.6145936   0.9999104  )
        15           Cu  tau(  15) = (   0.5000627   1.3841804   0.9994855  )
        16           Cu  tau(  16) = (   0.7500522   1.6145705   0.9999235  )
        17           Cu  tau(  17) = (   0.0000612   1.8455769   1.0000095  )
        18           Cu  tau(  18) = (   0.2500741   2.0771549   1.0000108  )
        19           Cu  tau(  19) = (   0.5000791   1.8455049   1.0000850  )
        20           Cu  tau(  20) = (   0.7500687   2.0771896   1.0000020  )
        21           Cu  tau(  21) = (   0.0000704   0.2315434   1.2478653  )
        22           Cu  tau(  22) = (   0.2500664  -0.0002381   1.2475273  )
        23           Cu  tau(  23) = (   0.5000670   0.2316783   1.2479035  )
        24           Cu  tau(  24) = (   0.7500740  -0.0002273   1.2475423  )
        25           Cu  tau(  25) = (   0.0000692   0.6936868   1.2480512  )
        26           Cu  tau(  26) = (   0.2500874   0.4630175   1.2481231  )
        27           Cu  tau(  27) = (   0.5000643   0.6936369   1.2480478  )
        28           Cu  tau(  28) = (   0.7500461   0.4629896   1.2480760  )
        29           Cu  tau(  29) = (   0.0000655   1.1534501   1.2482728  )
        30           Cu  tau(  30) = (   0.2500957   0.9236477   1.2480367  )
        31           Cu  tau(  31) = (   0.5000669   1.1533940   1.2482530  )
        32           Cu  tau(  32) = (   0.7500350   0.9236609   1.2480361  )
        33           Cu  tau(  33) = (   0.0000688   1.6141455   1.2484967  )
        34           Cu  tau(  34) = (   0.2500811   1.3834824   1.2485944  )
        35           Cu  tau(  35) = (   0.5000677   1.6141108   1.2487066  )
        36           Cu  tau(  36) = (   0.7500538   1.3834640   1.2486243  )
        37           Cu  tau(  37) = (   0.0000721   2.0771959   1.2475848  )
        38           Cu  tau(  38) = (   0.2500753   1.8454353   1.2480641  )
        39           Cu  tau(  39) = (   0.5000696   2.0772392   1.2474654  )
        40           Cu  tau(  40) = (   0.7500644   1.8454540   1.2480357  )
        41           Cu  tau(  41) = (   0.0000552  -0.0003437   1.4963069  )
        42           Cu  tau(  42) = (   0.2501594   0.2316922   1.4966729  )
        43           Cu  tau(  43) = (   0.5000801  -0.0003239   1.4961498  )
        44           Cu  tau(  44) = (   0.7499692   0.2317424   1.4967073  )
        45           Cu  tau(  45) = (   0.0000623   0.4634405   1.4974589  )
        46           Cu  tau(  46) = (   0.2501391   0.6941193   1.4986964  )
        47           Cu  tau(  47) = (   0.5000667   0.4635838   1.4978574  )
        48           Cu  tau(  48) = (   0.7499975   0.6940653   1.4985995  )
        49           Cu  tau(  49) = (   0.0000719   0.9236097   1.4991718  )
        50           Cu  tau(  50) = (   0.2500634   1.1527743   1.4992825  )
        51           Cu  tau(  51) = (   0.5000695   0.9235140   1.4993108  )
        52           Cu  tau(  52) = (   0.7500770   1.1527397   1.4993345  )
        53           Cu  tau(  53) = (   0.0000750   1.3828780   1.4988430  )
        54           Cu  tau(  54) = (   0.2500890   1.6138847   1.4980387  )
        55           Cu  tau(  55) = (   0.5000679   1.3824979   1.4990271  )
        56           Cu  tau(  56) = (   0.7500488   1.6139412   1.4979863  )
        57           Cu  tau(  57) = (   0.0000808   1.8455483   1.4970029  )
        58           Cu  tau(  58) = (   0.2499997   2.0773826   1.4963591  )
        59           Cu  tau(  59) = (   0.5000580   1.8459184   1.4969695  )
        60           Cu  tau(  60) = (   0.7501390   2.0773614   1.4963585  )
[...]
       116           C   tau( 116) = (   0.1669701   0.9636455   2.3943290  )
       117           C   tau( 117) = (   0.3328676   0.6759619   2.3925700  )
       118           C   tau( 118) = (   0.3306870   0.8664276   2.4033686  )
       119           C   tau( 119) = (   0.5000557   0.5791262   2.3918876  )
       120           C   tau( 120) = (   0.5005703   0.9642771   2.4585553  )
       121           C   tau( 121) = (   0.6669877   0.6763032   2.3895459  )
       122           C   tau( 122) = (   0.6689183   0.8667870   2.4013501  )
       123           C   tau( 123) = (   0.8335215   0.5793055   2.3841319  )
       124           C   tau( 124) = (   0.8327639   0.9636664   2.3937551  )
       125           C   tau( 125) = (   0.0001775   1.2524267   2.3940154  )
       126           C   tau( 126) = (   0.0002058   1.4454123   2.3866222  )
       127           C   tau( 127) = (   0.1666178   1.1567825   2.3964067  )
       128           C   tau( 128) = (   0.1669769   1.5416877   2.3844312  )
       129           C   tau( 129) = (   0.3342788   1.2531476   2.3945734  )
       130           C   tau( 130) = (   0.3337672   1.4457448   2.3873535  )
       131           C_h tau( 131) = (   0.5000705   1.1600103   2.4042867  )
       132           C   tau( 132) = (   0.5001390   1.5419263   2.3875286  )
       133           C   tau( 133) = (   0.6659113   1.2532485   2.3961466  )
       134           C   tau( 134) = (   0.6665638   1.4459311   2.3883803  )
       135           C   tau( 135) = (   0.8334444   1.1567853   2.3980193  )
       136           C   tau( 136) = (   0.8334256   1.5416843   2.3850458  )
       137           C   tau( 137) = (   0.0000818   1.8305645   2.3801465  )
       138           C   tau( 138) = (   0.0000178   2.0230047   2.3827294  )
       139           C   tau( 139) = (   0.1669767   1.7342100   2.3821412  )
       140           C   tau( 140) = (   0.1666234   2.1191650   2.3827717  )
       141           C   tau( 141) = (   0.3334727   1.8304533   2.3834572  )
       142           C   tau( 142) = (   0.3334464   2.0228704   2.3818320  )
       143           C   tau( 143) = (   0.5000638   1.7343864   2.3850919  )
       144           C   tau( 144) = (   0.5000445   2.1189962   2.3815734  )
       145           C   tau( 145) = (   0.6666800   1.8303624   2.3835727  )
       146           C   tau( 146) = (   0.6666154   2.0227865   2.3818160  )
       147           C   tau( 147) = (   0.8332512   1.7341954   2.3822333  )
       148           C   tau( 148) = (   0.8333765   2.1191374   2.3825846  )
       149           C   tau( 149) = (   0.4878592   0.9658295   2.6754889  )
       150           O   tau( 150) = (   0.3907150   1.0691884   2.7619711  )
       151           O   tau( 151) = (   0.5916853   0.8343731   2.7542978  )
       152           H   tau( 152) = (   0.5700785   0.8427763   2.8860689  )

     number of k points=     6  gaussian smearing, width (Ry)=  0.1000
                       cart. coord. in units 2pi/alat
        k(    1) = (   0.0000000   0.0000000   0.0000000), wk =   0.2500000
        k(    2) = (   0.0000000  -0.2165064   0.0000000), wk =   0.2500000
        k(    3) = (   0.2500000   0.0000000   0.0000000), wk =   0.5000000
        k(    4) = (   0.2500000  -0.2165064   0.0000000), wk =   0.5000000
        k(    5) = (  -0.5000000   0.0000000   0.0000000), wk =   0.2500000
        k(    6) = (  -0.5000000  -0.2165064   0.0000000), wk =   0.2500000

     Largest allocated arrays     est. size (Mb)     dimensions
     Largest temporary arrays     est. size (Mb)     dimensions

     Initial potential from superposition of free atoms
     Check: negative starting charge=   -0.001569

     starting charge 1283.31750, renormalised to 1309.00000

     negative rho (up, down):  1.601E-03 0.000E+00
     Starting wfc are 1301 randomized atomic wfcs

     Self-consistent Calculation

     iteration #  1     ecut=    80.00 Ry     beta=0.70
     Davidson diagonalization with overlap
     c_bands:  3 eigenvalues not converged
     c_bands:  3 eigenvalues not converged
     c_bands:  3 eigenvalues not converged
     c_bands:  1 eigenvalues not converged
     ethr =  1.00E-04,  avg # of iterations = 38.5

     negative rho (up, down):  2.257E+01 0.000E+00

     total energy              =  -10167.53202407 Ry
     Harris-Foulkes estimate   =  -17467.94196096 Ry
     estimated scf accuracy    <  182365.93003105 Ry

     iteration #  2     ecut=    80.00 Ry     beta=0.70
     Davidson diagonalization with overlap
     ethr =  1.00E-02,  avg # of iterations = 10.0

[...]

     iteration # 31     ecut=    80.00 Ry     beta=0.70
     Davidson diagonalization with overlap
     c_bands:  1 eigenvalues not converged
     ethr =  6.94E-07,  avg # of iterations = 10.8

[...]

     total energy              =  -12783.41511563 Ry
     Harris-Foulkes estimate   =  -12783.41511565 Ry
     estimated scf accuracy    <       0.00000002 Ry

     iteration # 45     ecut=    80.00 Ry     beta=0.70
     Davidson diagonalization with overlap
     ethr =  1.25E-12,  avg # of iterations =  2.7

     negative rho (up, down):  1.901E-03 0.000E+00

     End of self-consistent calculation

          k = 0.0000 0.0000 0.0000 (256287 PWs)   bands (ev):

   -20.2699 -18.0224 -16.9158 -16.1117 -15.9479 -15.2351 -14.9078 -14.5997
   -14.4589 -14.1342 -14.0591 -14.0084 -13.9851 -13.3325 -13.1986 -13.0131
   -12.9804 -12.9393 -12.9259 -11.5896 -11.4045 -11.3380 -11.2332 -11.0741
   -10.1512  -9.7185  -9.5845  -9.5499  -9.3538  -8.8092  -8.7669  -8.6437
    -8.4563  -8.3106  -7.7908  -7.7472  -7.5819  -7.4735  -7.4225  -7.4015
    -7.3733  -7.3307  -6.2545  -6.1937  -5.9532  -5.9239  -5.8943  -5.7970
    -5.7523  -5.7444  -5.6792  -5.4466  -5.3738  -5.3559  -4.9253  -4.7201
    -4.6448  -4.6124  -4.4860  -4.4267  -4.3728  -4.2245  -4.1723  -4.0709
    -3.8899  -3.8778  -3.8495  -3.7906  -3.7618  -3.5519  -3.3975  -3.3741
    -3.3036  -3.2947  -3.2926  -3.2779  -3.2376  -3.1516  -3.0803  -3.0433
    -2.9964  -2.8978  -2.8965  -2.8936  -2.8913  -2.8443  -2.8165  -2.7100
    -2.6813  -2.6319  -2.6291  -2.6209  -2.5933  -2.5809  -2.5478  -2.5176
    -2.3851  -2.2813  -2.2643  -2.2460  -2.2307  -2.2075  -2.1006  -2.0809
    -2.0788  -2.0427  -2.0412  -2.0396  -2.0391  -2.0356  -2.0007  -1.9742
    -1.9583  -1.9116  -1.9115  -1.9075  -1.9073  -1.8480  -1.8006  -1.7690
    -1.7301  -1.6656  -1.6280  -1.6276  -1.6255  -1.6237  -1.5862  -1.5656
    -1.5616  -1.5478  -1.5424  -1.4981  -1.4854  -1.4750  -1.4530  -1.4518
    -1.4475  -1.4402  -1.4253  -1.4170  -1.4142  -1.4044  -1.4025  -1.3697
    -1.3284  -1.3251  -1.3053  -1.2760  -1.2673  -1.2632  -1.2554  -1.2417
    -1.2081  -1.1881  -1.1531  -1.1523  -1.1400  -1.1177  -1.1008  -1.1000
    -1.0812  -1.0780  -1.0563  -1.0523  -1.0160  -1.0100  -1.0009  -0.9919
    -0.9406  -0.9369  -0.9287  -0.9216  -0.9181  -0.9124  -0.9116  -0.9104
    -0.9103  -0.9093  -0.9066  -0.8945  -0.8879  -0.8784  -0.8411  -0.8342
    -0.8285  -0.8256  -0.8151  -0.8085  -0.8072  -0.8059  -0.8024  -0.7520
    -0.7490  -0.7464  -0.7461  -0.7453  -0.7447  -0.7440  -0.7390  -0.7390
    -0.7369  -0.7368  -0.7367  -0.7348  -0.7340  -0.7310  -0.7307  -0.7183
    -0.7174  -0.6955  -0.6730  -0.6602  -0.5794  -0.5790  -0.5725  -0.5720
    -0.5511  -0.5492  -0.5306  -0.5304  -0.5112  -0.5089  -0.5022  -0.4990
    -0.4905  -0.4901  -0.4790  -0.4781  -0.4541  -0.4536  -0.4499  -0.4490
    -0.4435  -0.4431  -0.4326  -0.4316  -0.3820  -0.3811  -0.3787  -0.3646
    -0.3283  -0.3280  -0.3174  -0.3169  -0.3152  -0.3117  -0.3008  -0.2992
    -0.2953  -0.2933  -0.2933  -0.2928  -0.2890  -0.2888  -0.2745  -0.2742
    -0.2712  -0.2677  -0.2601  -0.2399  -0.2391  -0.2216  -0.1902  -0.1890
    -0.1837  -0.1812  -0.1810  -0.1580  -0.1578  -0.1512  -0.1510  -0.1390
    -0.1377  -0.1314  -0.1312  -0.1301  -0.1133  -0.1128  -0.1098  -0.1083
    -0.1055  -0.1052  -0.1016  -0.1000  -0.0986  -0.0974  -0.0808  -0.0794
    -0.0767  -0.0765  -0.0717  -0.0561  -0.0103  -0.0094  -0.0084  -0.0073
    -0.0073   0.0370   0.0390   0.0412   0.0430   0.0465   0.0484   0.0489
     0.0501   0.0510   0.0554   0.0684   0.0736   0.0953   0.1002   0.1015
     0.1028   0.1035   0.1102   0.1266   0.1277   0.1312   0.1357   0.1361
     0.1439   0.1562   0.1565   0.1567   0.1579   0.1614   0.1647   0.1729
     0.1733   0.1740   0.1745   0.1836   0.1866   0.1896   0.1948   0.2124
     0.2143   0.2458   0.2459   0.2688   0.2768   0.2788   0.2906   0.2974
     0.3056   0.3379   0.3394   0.3464   0.3534   0.3582   0.3602   0.3693
     0.3826   0.3827   0.3839   0.3841   0.3894   0.3922   0.3954   0.4406
     0.4418   0.4499   0.4507   0.4586   0.4610   0.4617   0.4711   0.4881
     0.4915   0.4924   0.4930   0.4955   0.5078   0.5249   0.5310   0.5354
     0.5363   0.5466   0.5492   0.5504   0.5519   0.5881   0.5899   0.5998
     0.6006   0.6057   0.6136   0.6137   0.6193   0.6344   0.6362   0.6371
     0.6441   0.6445   0.6447   0.6453   0.6482   0.6507   0.6553   0.6576
     0.6616   0.6641   0.6656   0.6687   0.6740   0.6746   0.6952   0.7091
     0.7148   0.7150   0.7201   0.7310   0.7519   0.7583   0.7589   0.7601
     0.7627   0.7638   0.7648   0.7663   0.7739   0.7761   0.7789   0.7838
     0.7888   0.7896   0.7925   0.7961   0.7968   0.7987   0.8068   0.8092
     0.8279   0.8314   0.8321   0.8336   0.8397   0.8455   0.8464   0.8522
     0.8572   0.8577   0.8578   0.8630   0.8653   0.8656   0.8697   0.8782
     0.8932   0.8977   0.9153   0.9157   0.9276   0.9301   0.9309   0.9312
     0.9370   0.9383   0.9649   0.9661   0.9807   0.9810   0.9855   0.9859
     1.0001   1.0007   1.0089   1.0098   1.0100   1.0105   1.0218   1.0306
     1.0446   1.0477   1.0488   1.0519   1.0521   1.0528   1.0608   1.0719
[...]
     4.1172   4.1187   4.1202   4.1220   4.1263   4.1295   4.3611   4.3646
     4.3685   4.3811   4.5114   4.5588   4.8592   4.8732   4.9389   5.0358
     5.4082   5.4715   5.5249   5.5383   5.6379   5.8129   5.8221   5.8503
     5.8647   5.9926   6.0439   6.0704   6.4464   6.4649   6.4843   6.5219
     6.5506   6.5955   6.5968   6.6034   6.6433   6.7040   6.7568   6.8070
     6.8585   6.8924   6.9118   6.9345   7.0036   7.1101   7.1659   7.1864
     7.2050   7.2103   7.2198   7.2525   7.4688   7.4718   7.6721   7.6759
     7.7240   7.8105   7.8159   7.8206   7.8398   7.9457   8.1734   8.2397
     8.3095   8.3264   8.3691   8.4216   8.4226   8.4452   8.4481   8.4729
     8.5061   8.5108   8.5268   8.6185   8.6644   8.6709   8.6963   8.7719
     8.7748   8.7787   8.7941   8.8545   8.8845   8.8968   8.9495   8.9500
     8.9571   8.9588   9.1758   9.2247   9.2337   9.2361   9.2424   9.2484
     9.3053   9.3202   9.4532   9.4582   9.4874   9.5537   9.6739   9.6886
     9.6923   9.7348   9.7703   9.8842   9.9411  10.1264  10.1536  10.1548
    10.1847  10.2555

[...]

          k = 0.2500-0.2165 0.0000 (256316 PWs)   bands (ev):

[...]

          k =-0.5000 0.0000 0.0000 (256496 PWs)   bands (ev):

[...]

          k =-0.5000-0.2165 0.0000 (256328 PWs)   bands (ev):

   -20.2698 -18.0220 -16.7801 -15.7746 -15.6966 -15.6821 -15.2373 -15.0822
   -15.0005 -14.9751 -13.8882 -13.7200 -13.5663 -13.5216 -12.4414 -12.2168
   -11.9498 -11.8708 -11.8519 -11.6083 -11.5300 -11.4467 -11.4036 -11.3885
   -11.2778 -11.2748 -10.0469  -9.8504  -9.6179  -9.5648  -8.9993  -8.9421
    -8.6348  -8.6262  -8.4143  -8.1148  -7.9530  -7.8788  -7.8339  -6.3073
    -6.1213  -6.0263  -5.8043  -5.6729  -5.5625  -5.4234  -5.2227  -5.1761
    -5.1530  -5.0711  -5.0709  -5.0660  -5.0591  -4.9573  -4.8939  -4.8810
    -4.4476  -4.3271  -4.3036  -4.2384  -4.2071  -4.1891  -4.1073  -4.1024
    -4.0869  -4.0858  -4.0779  -4.0562  -4.0343  -3.9302  -3.8128  -3.7737
    -3.7461  -3.6929  -3.6831  -3.6196  -3.5770  -3.5601  -3.5222  -3.4771
    -3.4730  -3.4110  -3.3475  -3.3085  -3.1944  -3.1612  -3.0151  -2.9439
    -2.9083  -2.7179  -2.4718  -2.4679  -2.4675  -2.4670  -2.4500  -2.4287
    -2.4232  -2.4048  -2.4021  -2.3911  -2.2474  -2.1823  -2.1789  -2.0320
    -2.0129  -1.9849  -1.9835  -1.9687  -1.9536  -1.9131  -1.9049  -1.9025
    -1.8971  -1.8494  -1.8368  -1.7082  -1.6934  -1.6925  -1.6903  -1.6871
    -1.6124  -1.5989  -1.4938  -1.4529  -1.3885  -1.3829  -1.3824  -1.3820
    -1.3818  -1.3765  -1.3466  -1.3433  -1.3421  -1.3418  -1.3241  -1.3238
    -1.3203  -1.3202  -1.2762  -1.2751  -1.2747  -1.2746  -1.2724  -1.2717
    -1.2659  -1.2627  -1.2477  -1.2475  -1.2473  -1.2469  -1.2011  -1.1995
    -1.1956  -1.1953  -1.1625  -1.1402  -1.1215  -1.1198  -1.1191  -1.0973
    -1.0817  -1.0815  -1.0787  -1.0785  -1.0612  -1.0609  -1.0594  -1.0509
    -1.0116  -1.0109  -1.0104  -1.0102  -1.0055  -1.0055  -1.0054  -1.0032
    -0.9929  -0.9787  -0.9755  -0.9519  -0.9518  -0.9417  -0.9406  -0.9390
    -0.9346  -0.9343  -0.9284  -0.9269  -0.9253  -0.9248  -0.9242  -0.9227
    -0.9041  -0.8932  -0.8826  -0.7745  -0.7739  -0.7702  -0.7687  -0.7421
    -0.7419  -0.7417  -0.7413  -0.6782  -0.6630  -0.6624  -0.6590  -0.6565
    -0.6538  -0.6521  -0.6519  -0.6512  -0.6501  -0.6484  -0.6401  -0.5922
    -0.5894  -0.5892  -0.5875  -0.5813  -0.5793  -0.5785  -0.5778  -0.5634
    -0.5626  -0.5509  -0.5476  -0.5016  -0.4685  -0.4679  -0.4639  -0.4603
    -0.4569  -0.4545  -0.4510  -0.4160  -0.3894  -0.3890  -0.3875  -0.3856
    -0.3394  -0.3389  -0.3384  -0.3375  -0.3195  -0.3195  -0.3163  -0.3159
    -0.2953  -0.2921  -0.2883  -0.2875  -0.2801  -0.2790  -0.2787  -0.2772
    -0.2493  -0.2393  -0.2373  -0.2325  -0.1669  -0.1667  -0.1605  -0.1600
    -0.1471  -0.1467  -0.1461  -0.1454  -0.1328  -0.1309  -0.1304  -0.1302
    -0.0622  -0.0498  -0.0476  -0.0468  -0.0445  -0.0436  -0.0425  -0.0411
    -0.0409  -0.0398  -0.0394  -0.0387  -0.0042  -0.0034  -0.0032  -0.0026
     0.0066   0.0092   0.0098   0.0099   0.0106   0.0147   0.0150   0.0162
     0.0334   0.0785   0.0828   0.0840   0.0851   0.0887   0.1049   0.1094
     0.1170   0.1183   0.1551   0.1589   0.1619   0.1674   0.1717   0.1777
     0.1874   0.1888   0.1889   0.1895   0.1944   0.1956   0.1962   0.1984
     0.2014   0.2020   0.2046   0.2053   0.2097   0.2098   0.2105   0.2105
     0.2153   0.2156   0.2179   0.2184   0.2324   0.2325   0.2331   0.2335
     0.2594   0.2596   0.2605   0.2605   0.2690   0.2709   0.2714   0.2721
     0.2964   0.3194   0.3201   0.3212   0.3229   0.3470   0.3537   0.3547
     0.3557   0.3615   0.4196   0.4203   0.4327   0.4338   0.4374   0.4377
     0.4406   0.4475   0.4501   0.4515   0.4537   0.4550   0.4593   0.4612
     0.4657   0.4669   0.4719   0.4732   0.4766   0.4771   0.4831   0.4845
     0.4858   0.4880   0.4901   0.4923   0.4957   0.4982   0.5115   0.5426
     0.5577   0.5617   0.5637   0.5661   0.5673   0.5674   0.5722   0.5763
     0.5781   0.5790   0.5796   0.5855   0.6059   0.6125   0.6183   0.6192
     0.6195   0.6212   0.6295   0.6310   0.6430   0.6591   0.6602   0.6664
     0.6692   0.6746   0.6761   0.6763   0.6789   0.6790   0.6809   0.6839
     0.6844   0.6855   0.6888   0.6898   0.6980   0.7019   0.7033   0.7043
     0.7109   0.7136   0.7199   0.7233   0.7575   0.7803   0.7853   0.7888
     0.7908   0.7924   0.7932   0.7947   0.7952   0.7976   0.8010   0.8020
     0.8045   0.8162   0.8202   0.8246   0.8370   0.8381   0.8388   0.8399
     0.8404   0.8410   0.8420   0.8462   0.8756   0.8915   0.8930   0.8940
     0.8989   0.9197   0.9200   0.9228   0.9231   0.9334   0.9441   0.9499
     0.9554   0.9555   0.9589   0.9611   0.9815   0.9822   0.9839   0.9847
     1.0340   1.0350   1.0355   1.0360   1.0660   1.0665   1.0700   1.0703
[...]
     4.4689   4.5042   4.6423   4.6662   4.6691   4.6771   4.6889   4.6981
     4.7107   4.8201   4.9033   4.9921   5.0052   5.1033   5.1377   5.1797
     5.2492   5.2743   5.2758   5.2857   5.3013   5.3612   5.3873   5.4106
     5.4430   5.4566   5.4658   5.4707   5.5286   5.6907   5.8124   5.8484
     5.8570   5.8577   5.8616   5.8658   5.9291   5.9890   6.0276   6.0310
     6.3497   6.8403   6.8615   6.9037   6.9285   6.9342   7.2061   7.2123
     7.2514   7.2555   7.2621   7.2637   7.2690   7.2959   7.3874   7.3954
     7.4072   7.4314   7.4749   7.4771   7.4786   7.4852   7.6128   7.7310
     7.7327   7.7444   7.7730   7.8138   8.0404   8.0915   8.0944   8.0991
     8.1048   8.1647   8.3376   8.3443   8.3522   8.3660   8.3688   8.4531
     8.5293   8.9509   8.9863   8.9907   8.9970   9.0022   9.0196   9.0367
     9.0394   9.0559   9.0763   9.0780   9.0799   9.0878   9.1457   9.1720
     9.2073   9.2128   9.2305   9.3651   9.4104   9.5319   9.6237   9.6349
     9.6657   9.6744   9.6775   9.6949   9.7013   9.7058   9.9014   9.9299
    10.0168  10.0540

     the Fermi energy is     3.4298 ev

!    total energy              =  -12783.41511566 Ry
     Harris-Foulkes estimate   =  -12783.41511563 Ry
     estimated scf accuracy    <          2.2E-09 Ry

     The total energy is the sum of the following terms:

     one-electron contribution = -107447.59753406 Ry
     hartree contribution      =   55098.14623207 Ry
     xc contribution           =   -4465.85381830 Ry
     ewald contribution        =   44038.26846873 Ry
     Dispersion Correction     =      -3.01374636 Ry
     smearing contrib. (-TS)   =      -3.36471774 Ry

     convergence has been achieved in  45 iterations

     Writing output data file gc.save

     General routines

     Parallel routines

   This run was terminated on:  14:40:14  12May2017

   JOB DONE.