     Program PWSCF v.5.4.0 starts on 16Sep2017 at 17:39:15

     Current dimensions of program PWSCF are:
     Max number of different atomic species (ntypx) = 10
     Max number of k-points (npk) =  40000
     Max angular momentum in pseudopotentials (lmaxx) =  3
     WARNING: atomic wfc #  2 for atom type 4 has zero norm
     WARNING: atomic wfc #  4 for atom type 4 has zero norm
     WARNING: atomic wfc #  5 for atom type 4 has zero norm

     Parameters for Dispersion Correction:
       atom      VdW radius       C_6

        Cu         2.952        374.666
        C_h        2.744         60.710
        C          2.744         60.710
        O          2.536         24.284

     bravais-lattice index     =            0
     lattice parameter (alat)  =      13.9425  a.u.
     unit-cell volume          =   21209.0878 (a.u.)^3
     number of atoms/cell      =          150
     number of atomic types    =            4
     number of electrons       =      1302.00
     number of Kohn-Sham states=          781
     kinetic-energy cutoff     =      80.0000  Ry
     charge density cutoff     =     320.0000  Ry
     convergence threshold     =      1.0E-08
     mixing beta               =       0.7000
     number of iterations used =            8  local-TF  mixing
     Exchange-correlation      =  SLA  PW   PBX  PBC ( 1  4  3  4 0 0)

     celldm(1)=  13.942539  celldm(2)=   0.000000  celldm(3)=   0.000000
     celldm(4)=   0.000000  celldm(5)=   0.000000  celldm(6)=   0.000000

     crystal axes: (cart. coord. in units of alat)
               a(1) = (   1.000000   0.000000   0.000000 )
               a(2) = (   0.000000   2.309401   0.000000 )
               a(3) = (   0.000000   0.000000   3.388418 )

     reciprocal axes: (cart. coord. in units 2 pi/alat)
               b(1) = (  1.000000  0.000000  0.000000 )
               b(2) = (  0.000000  0.433013  0.000000 )
               b(3) = (  0.000000  0.000000  0.295123 )

     PseudoPot. # 1 for Cu read from file:
     /home/549/hxw549/Short/pseudopotentials/Cu.pbe-n-van_ak.UPF
     MD5 check sum: 601f7c30f7467666bec936e0661ce3e1
     Pseudo is Ultrasoft + core correction, Zval = 11.0
     Generated by new atomic code, or converted to UPF format
     Using radial grid of  867 points,  6 beta functions with:
                l(1) =   0
                l(2) =   0
                l(3) =   1
                l(4) =   1
                l(5) =   2
                l(6) =   2
     Q(r) pseudized with  8 coefficients,  rinner =    1.400   1.400   1.400
                                                       1.400   1.400

     PseudoPot. # 2 for C  read from file:
     /home/549/hxw549/Short/pseudopotentials/C.star1s-pbe-mt_gipaw.UPF
     MD5 check sum: ef0cb3dee31bd9e4ba2a832a2c716264
     Pseudo is Norm-conserving, Zval =  5.0
     Generated by new atomic code, or converted to UPF format
     Using radial grid of 1073 points,  1 beta functions with:
                l(1) =   0

     PseudoPot. # 3 for C  read from file:
     /home/549/hxw549/Short/pseudopotentials/C.pbe-mt_gipaw.UPF
     MD5 check sum: 5ac2f21f2c440b14befe521540822c15
     Pseudo is Norm-conserving, Zval =  4.0
     Generated by new atomic code, or converted to UPF format
     Using radial grid of 1073 points,  1 beta functions with:
                l(1) =   0

     PseudoPot. # 4 for O  read from file:
     /home/549/hxw549/Short/pseudopotentials/O.pbe-van_gipaw.UPF
     MD5 check sum: 5ce2a047509d4f331db576c963e74b29
     Pseudo is Ultrasoft, Zval =  6.0
     Generated by new atomic code, or converted to UPF format
     Using radial grid of 1095 points,  4 beta functions with:
                l(1) =   0
                l(2) =   0
                l(3) =   1
                l(4) =   1
     Q(r) pseudized with 0 coefficients

     atomic species   valence    mass     pseudopotential
        Cu            11.00    63.54600     Cu( 1.00)
        C_h            5.00    12.01070     C ( 1.00)
        C              4.00    12.01070     C ( 1.00)
        O              6.00    15.99940     O ( 1.00)

     No symmetry found

   Cartesian axes

     site n.     atom                  positions (alat units)
         1           Cu  tau(   1) = (   0.0007746  -0.0017263   0.9974341  )
         2           Cu  tau(   2) = (   0.2507737   0.2258138   0.9973260  )
         3           Cu  tau(   3) = (   0.5008760  -0.0022365   0.9966779  )
         4           Cu  tau(   4) = (   0.7508471   0.2263841   0.9980016  )
         5           Cu  tau(   5) = (   0.0008392   0.4565406   0.9985792  )
         6           Cu  tau(   6) = (   0.2509427   0.6897855   0.9999657  )
         7           Cu  tau(   7) = (   0.5008379   0.4568514   0.9990575  )
         8           Cu  tau(   8) = (   0.7507194   0.6897031   0.9999838  )
         9           Cu  tau(   9) = (   0.0006685   0.9241902   1.0001491  )
        10           Cu  tau(  10) = (   0.2508199   1.1585893   0.9994315  )
        11           Cu  tau(  11) = (   0.5008540   0.9240586   1.0006399  )
        12           Cu  tau(  12) = (   0.7507433   1.1584370   0.9997064  )
        13           Cu  tau(  13) = (   0.0007724   1.3915619   0.9981007  )
        14           Cu  tau(  14) = (   0.2507485   1.6225299   0.9965829  )
        15           Cu  tau(  15) = (   0.5008122   1.3916616   0.9979961  )
        16           Cu  tau(  16) = (   0.7508119   1.6227756   0.9965609  )
        17           Cu  tau(  17) = (   0.0009883   1.8518082   0.9959401  )
        18           Cu  tau(  18) = (   0.2507237   2.0803995   0.9968330  )
        19           Cu  tau(  19) = (   0.5006394   1.8518782   0.9959625  )
        20           Cu  tau(  20) = (   0.7509541   2.0796587   0.9956860  )
        21           Cu  tau(  21) = (   0.0010190   0.2258085   1.2493909  )
        22           Cu  tau(  22) = (   0.2504775  -0.0015663   1.2511192  )
        23           Cu  tau(  23) = (   0.5007592   0.2244625   1.2474139  )
        24           Cu  tau(  24) = (   0.7511204  -0.0032534   1.2489893  )
        25           Cu  tau(  25) = (   0.0011318   0.6883266   1.2442935  )
        26           Cu  tau(  26) = (   0.2506634   0.4550101   1.2457739  )
        27           Cu  tau(  27) = (   0.5010434   0.6889459   1.2455869  )
        28           Cu  tau(  28) = (   0.7513247   0.4551755   1.2463317  )
        29           Cu  tau(  29) = (   0.0009417   1.1597158   1.2443880  )
        30           Cu  tau(  30) = (   0.2512312   0.9241298   1.2444880  )
        31           Cu  tau(  31) = (   0.5007499   1.1593901   1.2450686  )
        32           Cu  tau(  32) = (   0.7508296   0.9240397   1.2450130  )
        33           Cu  tau(  33) = (   0.0007793   1.6243336   1.2463775  )
        34           Cu  tau(  34) = (   0.2504282   1.3930798   1.2451551  )
        35           Cu  tau(  35) = (   0.5008090   1.6252398   1.2451280  )
        36           Cu  tau(  36) = (   0.7512192   1.3936504   1.2446248  )
        37           Cu  tau(  37) = (   0.0010877   2.0797516   1.2492188  )
        38           Cu  tau(  38) = (   0.2507223   1.8528469   1.2475014  )
        39           Cu  tau(  39) = (   0.5004398   2.0799192   1.2488390  )
        40           Cu  tau(  40) = (   0.7508180   1.8531203   1.2475507  )
        41           Cu  tau(  41) = (   0.0016658  -0.0022985   1.5045196  )
        42           Cu  tau(  42) = (   0.2503972   0.2291600   1.5050437  )
        43           Cu  tau(  43) = (   0.5000117  -0.0022562   1.5036487  )
        44           Cu  tau(  44) = (   0.7517889   0.2249026   1.5000298  )
        45           Cu  tau(  45) = (   0.0021806   0.4573907   1.4979107  )
        46           Cu  tau(  46) = (   0.2515336   0.6876551   1.4914913  )
        47           Cu  tau(  47) = (   0.5009200   0.4538841   1.4935295  )
        48           Cu  tau(  48) = (   0.7528141   0.6875879   1.4907110  )
        49           Cu  tau(  49) = (   0.0033450   0.9232828   1.4888842  )
        50           Cu  tau(  50) = (   0.2503503   1.1598614   1.4909692  )
        51           Cu  tau(  51) = (   0.5011269   0.9241898   1.4909779  )
        52           Cu  tau(  52) = (   0.7519249   1.1613568   1.4891627  )
        53           Cu  tau(  53) = (   0.0011131   1.3942307   1.4938872  )
        54           Cu  tau(  54) = (   0.2503927   1.6255964   1.4976503  )
        55           Cu  tau(  55) = (   0.5006234   1.3972544   1.4901219  )
        56           Cu  tau(  56) = (   0.7512735   1.6255407   1.4977139  )
        57           Cu  tau(  57) = (   0.0005637   1.8528289   1.5024635  )
        58           Cu  tau(  58) = (   0.2506219   2.0792198   1.5045906  )
        59           Cu  tau(  59) = (   0.5009250   1.8529925   1.5021785  )
        60           Cu  tau(  60) = (   0.7508082   2.0800280   1.5044375  )
[...]
       134           C   tau( 134) = (   0.6665495   1.4443316   2.5269178  )
       135           C   tau( 135) = (   0.8334671   1.1581306   2.5807843  )
       136           C   tau( 136) = (   0.8333255   1.5402118   2.5066151  )
       137           C   tau( 137) = (   0.0000004   1.8277352   2.4539580  )
       138           C   tau( 138) = (  -0.0000015   2.0216453   2.4380816  )
       139           C   tau( 139) = (   0.1667979   1.7311224   2.4699837  )
       140           C   tau( 140) = (   0.1667608   2.1194820   2.4391038  )
       141           C   tau( 141) = (   0.3334638   1.8277274   2.4563194  )
       142           C   tau( 142) = (   0.3334790   2.0215976   2.4405198  )
       143           C   tau( 143) = (   0.4999842   1.7306087   2.4686680  )
       144           C   tau( 144) = (   0.5000116   2.1195299   2.4408306  )
       145           C   tau( 145) = (   0.6666293   1.8276257   2.4559927  )
       146           C   tau( 146) = (   0.6665863   2.0215855   2.4403438  )
       147           C   tau( 147) = (   0.8331931   1.7310805   2.4699489  )
       148           C   tau( 148) = (   0.8332380   2.1195278   2.4386194  )
       149           C_h tau( 149) = (   0.3726381   0.8371666   2.1777400  )
       150           O   tau( 150) = (   0.4493068   0.9396855   2.2775618  )

     number of k points=     6  gaussian smearing, width (Ry)=  0.1000
                       cart. coord. in units 2pi/alat
        k(    1) = (   0.0000000   0.0000000   0.0000000), wk =   0.2500000
        k(    2) = (   0.0000000  -0.2165064   0.0000000), wk =   0.2500000
        k(    3) = (   0.2500000   0.0000000   0.0000000), wk =   0.5000000
        k(    4) = (   0.2500000  -0.2165064   0.0000000), wk =   0.5000000
        k(    5) = (  -0.5000000   0.0000000   0.0000000), wk =   0.2500000
        k(    6) = (  -0.5000000  -0.2165064   0.0000000), wk =   0.2500000

     Largest allocated arrays     est. size (Mb)     dimensions
     Largest temporary arrays     est. size (Mb)     dimensions

     Initial potential from superposition of free atoms
     Check: negative starting charge=   -0.001512

     starting charge 1276.31751, renormalised to 1302.00000

     negative rho (up, down):  1.543E-03 0.000E+00
     Starting wfc are 1296 randomized atomic wfcs

     Self-consistent Calculation

     iteration #  1     ecut=    80.00 Ry     beta=0.70
     Davidson diagonalization with overlap
     c_bands:  3 eigenvalues not converged
     c_bands:  4 eigenvalues not converged
     ethr =  1.00E-04,  avg # of iterations = 47.7

     negative rho (up, down):  2.367E+01 0.000E+00

     total energy              =  -10031.10616437 Ry
     Harris-Foulkes estimate   =  -18087.97033687 Ry
     estimated scf accuracy    <  208322.03770749 Ry

     iteration #  2     ecut=    80.00 Ry     beta=0.70
     Davidson diagonalization with overlap
     ethr =  1.00E-02,  avg # of iterations = 13.2

[...]

     iteration # 36     ecut=    80.00 Ry     beta=0.70
     Davidson diagonalization with overlap
     c_bands:  1 eigenvalues not converged
     ethr =  2.01E-09,  avg # of iterations =  8.3

[...]

     total energy              =  -12750.12305347 Ry
     Harris-Foulkes estimate   =  -12750.12305348 Ry
     estimated scf accuracy    <       0.00000003 Ry

     iteration # 43     ecut=    80.00 Ry     beta=0.70
     Davidson diagonalization with overlap
     ethr =  2.05E-12,  avg # of iterations =  2.0

     negative rho (up, down):  1.693E-03 0.000E+00

     End of self-consistent calculation

          k = 0.0000 0.0000 0.0000 (256287 PWs)   bands (ev):

   -21.6280 -15.9292 -15.5592 -15.5471 -14.4752 -14.4717 -13.9649 -13.9640
   -13.6062 -13.6029 -13.5932 -13.5918 -12.7216 -12.7152 -12.5590 -12.5574
   -12.5554 -12.5532 -10.9097 -10.9074 -10.9016 -10.8995 -10.8166  -9.6526
    -9.1285  -9.1243  -8.9562  -8.9526  -8.1564  -8.0917  -8.0801  -8.0792
    -8.0390  -7.2296  -7.2239  -7.0364  -7.0326  -7.0309  -7.0308  -7.0008
    -7.0001  -5.9635  -5.5313  -5.5243  -5.5202  -5.5178  -5.4749  -5.4276
    -5.4113  -5.4085  -5.4058  -5.4050  -5.2419  -4.8260  -4.7950  -4.4275
    -4.3110  -4.2913  -4.2788  -4.2770  -4.0972  -4.0314  -4.0299  -3.9207
    -3.9175  -3.6371  -3.5145  -3.3472  -3.3400  -3.1842  -3.1815  -3.1804
    -3.1757  -3.1742  -2.9694  -2.9593  -2.9573  -2.9482  -2.9464  -2.9356
    -2.9286  -2.9259  -2.8165  -2.7842  -2.7010  -2.4630  -2.4594  -2.4536
    -2.4506  -2.4027  -2.3835  -2.3452  -2.3374  -2.3329  -2.3261  -2.2516
    -2.2485  -2.2438  -2.2255  -2.1457  -2.1397  -2.1142  -2.1108  -2.1086
    -2.1056  -1.9899  -1.9873  -1.9697  -1.9659  -1.9460  -1.8554  -1.8482
    -1.8142  -1.7378  -1.7054  -1.6978  -1.6945  -1.6931  -1.6825  -1.6682
    -1.6481  -1.6133  -1.6076  -1.5962  -1.5732  -1.5606  -1.5577  -1.5398
    -1.5375  -1.5368  -1.5178  -1.5034  -1.4904  -1.4842  -1.4813  -1.4789
    -1.4751  -1.4404  -1.4163  -1.3996  -1.3951  -1.3836  -1.3767  -1.3358
    -1.3174  -1.2861  -1.2643  -1.2609  -1.2567  -1.2451  -1.2311  -1.2240
    -1.2095  -1.1822  -1.1723  -1.1572  -1.1568  -1.1326  -1.1225  -1.0479
    -1.0456  -1.0438  -1.0274  -1.0245  -1.0219  -1.0164  -1.0103  -1.0041
    -1.0029  -0.9999  -0.9981  -0.9847  -0.9810  -0.9756  -0.9720  -0.9643
    -0.9642  -0.9592  -0.9501  -0.9158  -0.9149  -0.9114  -0.9025  -0.8888
    -0.8861  -0.8845  -0.8569  -0.8392  -0.8368  -0.8285  -0.8243  -0.8238
    -0.8186  -0.8163  -0.8150  -0.8132  -0.8119  -0.8107  -0.8102  -0.8067
    -0.8054  -0.8028  -0.7939  -0.7378  -0.6831  -0.6582  -0.6532  -0.6493
    -0.6392  -0.6321  -0.6156  -0.6072  -0.6002  -0.5959  -0.5921  -0.5855
    -0.5797  -0.5728  -0.5619  -0.5459  -0.5366  -0.5325  -0.5319  -0.5291
    -0.5246  -0.5221  -0.5131  -0.5009  -0.4762  -0.4654  -0.4600  -0.4280
    -0.4219  -0.4153  -0.4072  -0.3989  -0.3971  -0.3946  -0.3907  -0.3877
    -0.3851  -0.3835  -0.3798  -0.3759  -0.3747  -0.3744  -0.3692  -0.3560
    -0.3529  -0.3509  -0.3493  -0.3276  -0.3119  -0.3085  -0.3025  -0.2909
    -0.2860  -0.2830  -0.2740  -0.2714  -0.2617  -0.2596  -0.2541  -0.2519
    -0.2506  -0.2445  -0.2408  -0.2390  -0.2367  -0.2237  -0.2222  -0.2163
    -0.2149  -0.2109  -0.2094  -0.2091  -0.2041  -0.1962  -0.1946  -0.1925
    -0.1878  -0.1831  -0.1742  -0.1679  -0.1653  -0.1627  -0.1553  -0.1549
    -0.1411  -0.1292  -0.1154  -0.1090  -0.0964  -0.0945  -0.0768  -0.0700
    -0.0602  -0.0589  -0.0480  -0.0407  -0.0362  -0.0313  -0.0274  -0.0270
    -0.0212  -0.0176  -0.0085   0.0089   0.0133   0.0203   0.0252   0.0320
     0.0335   0.0353   0.0470   0.0562   0.0613   0.0659   0.0673   0.0755
     0.0784   0.0795   0.0815   0.0871   0.0908   0.0953   0.1004   0.1162
     0.1195   0.1263   0.1340   0.1359   0.1378   0.1648   0.1697   0.1716
     0.1820   0.1899   0.1930   0.1992   0.2182   0.2278   0.2369   0.2415
     0.2529   0.2669   0.2734   0.2809   0.2940   0.2989   0.3035   0.3106
     0.3123   0.3250   0.3281   0.3405   0.3476   0.3552   0.3626   0.3639
     0.3787   0.3836   0.3875   0.3904   0.4017   0.4043   0.4100   0.4139
     0.4276   0.4293   0.4348   0.4474   0.4552   0.4578   0.4600   0.4672
     0.4727   0.4782   0.4810   0.4880   0.5047   0.5088   0.5132   0.5175
     0.5245   0.5254   0.5301   0.5447   0.5499   0.5511   0.5568   0.5575
     0.5627   0.5679   0.5684   0.5735   0.5746   0.5749   0.5783   0.5832
     0.5886   0.5911   0.5983   0.6048   0.6138   0.6160   0.6272   0.6352
     0.6393   0.6439   0.6499   0.6581   0.6607   0.6668   0.6709   0.6739
     0.6881   0.6887   0.6913   0.6956   0.6964   0.6994   0.7039   0.7088
     0.7088   0.7151   0.7194   0.7233   0.7307   0.7380   0.7396   0.7448
     0.7501   0.7538   0.7544   0.7571   0.7609   0.7689   0.7733   0.7747
     0.7814   0.7872   0.7899   0.8114   0.8117   0.8195   0.8314   0.8348
     0.8448   0.8561   0.8580   0.8611   0.8687   0.8714   0.8860   0.8871
     0.8897   0.8958   0.8988   0.9016   0.9096   0.9200   0.9264   0.9291
     0.9347   0.9351   0.9408   0.9432   0.9482   0.9500   0.9517   0.9574
     0.9657   0.9707   0.9738   0.9862   0.9923   1.0021   1.0042   1.0084
[...]
     3.8562   3.9085   3.9209   3.9490   3.9715   3.9849   4.0008   4.0166
     4.0265   4.0346   4.0858   4.1412   4.1548   4.1966   4.2807   4.5236
     4.7252   4.8853   5.0267   5.1602   5.3183   5.3328   5.3485   5.3617
     5.3698   5.3790   5.4055   5.5769   5.6150   5.7756   5.8475   5.9475
     5.9840   6.1907   6.2097   6.3562   6.3747   6.4410   6.4675   6.5174
     6.5287   6.6442   6.6708   6.7140   6.7685   6.9234   6.9371   6.9399
     6.9780   7.0186   7.1348   7.1525   7.1632   7.1849   7.1851   7.2033
     7.2581   7.3731   7.4038   7.4206   7.5605   7.6425   7.6609   7.7027
     7.7254   7.8334   8.0649   8.0788   8.1098   8.1213   8.1358   8.1550
     8.2046   8.2962   8.3185   8.3477   8.3559   8.3628   8.4184   8.4805
     8.5399   8.5567   8.5633   8.5885   8.6781   8.7814   8.7917   8.8031
     8.8153   8.8243   8.8295   8.8371   8.8710   8.8737   8.9388   8.9936
     9.0103   9.0653   9.0796   9.1378   9.2463   9.3059   9.3453   9.5394
     9.5583   9.5681   9.5855   9.6636   9.6702   9.7406   9.7810   9.8442
     9.8711  10.0576  10.0606  10.1673  10.1847

[...]

          k = 0.2500-0.2165 0.0000 (256316 PWs)   bands (ev):

[...]

          k =-0.5000 0.0000 0.0000 (256496 PWs)   bands (ev):

[...]

          k =-0.5000-0.2165 0.0000 (256328 PWs)   bands (ev):

   -21.6280 -15.3766 -15.3752 -15.3008 -15.2912 -14.6137 -14.6129 -14.6115
   -14.6077 -13.1993 -13.1980 -13.1967 -13.1959 -11.5606 -11.5589 -11.4861
   -11.4811 -11.2147 -11.2121 -11.1763 -11.1706 -10.9383 -10.9368 -10.8941
   -10.8917  -9.2752  -9.2748  -9.2276  -9.2250  -8.3571  -8.3495  -8.3261
    -8.3203  -8.0938  -7.6152  -7.6138  -7.5643  -7.5537  -5.5596  -5.5507
    -5.5451  -5.5437  -5.3631  -5.1350  -5.1216  -5.1179  -5.0207  -4.8906
    -4.8900  -4.8429  -4.8389  -4.8028  -4.5606  -4.5529  -4.5044  -4.4707
    -4.4132  -4.1398  -4.1348  -4.1310  -4.1262  -4.0890  -4.0800  -4.0258
    -3.9317  -3.7094  -3.7075  -3.6957  -3.6928  -3.5256  -3.5252  -3.3917
    -3.3256  -3.3231  -3.2600  -3.2423  -3.2385  -3.2141  -3.2121  -3.2070
    -3.1979  -3.1938  -3.1885  -3.1506  -3.1189  -2.6177  -2.6111  -2.6047
    -2.5342  -2.5339  -2.5307  -2.5284  -2.5206  -2.5004  -2.4980  -2.4854
    -2.3941  -2.0385  -2.0362  -2.0326  -2.0319  -2.0284  -2.0201  -2.0067
    -1.9728  -1.9699  -1.9652  -1.9640  -1.9536  -1.7761  -1.7597  -1.7593
    -1.7432  -1.6168  -1.6091  -1.5829  -1.5688  -1.5618  -1.5596  -1.5541
    -1.5447  -1.4804  -1.4636  -1.4600  -1.4572  -1.4557  -1.4533  -1.4495
    -1.4099  -1.4050  -1.4037  -1.3996  -1.3824  -1.3607  -1.3543  -1.3446
    -1.3443  -1.3424  -1.3393  -1.3387  -1.3316  -1.3288  -1.3225  -1.3179
    -1.3162  -1.2753  -1.2721  -1.2636  -1.2593  -1.2392  -1.2284  -1.2229
    -1.1947  -1.1702  -1.1688  -1.1581  -1.1531  -1.1506  -1.1293  -1.1226
    -1.1201  -1.1191  -1.1165  -1.1105  -1.1067  -1.1048  -1.1021  -1.0977
    -1.0909  -1.0897  -1.0810  -1.0717  -1.0526  -1.0390  -1.0327  -1.0248
    -1.0180  -1.0101  -1.0065  -1.0046  -0.9997  -0.9975  -0.9908  -0.9901
    -0.9869  -0.9420  -0.9370  -0.9328  -0.9152  -0.8717  -0.8608  -0.8396
    -0.8354  -0.8313  -0.8198  -0.8191  -0.8184  -0.7650  -0.7540  -0.7484
    -0.7426  -0.7362  -0.7351  -0.7314  -0.7284  -0.7246  -0.7233  -0.7212
    -0.7158  -0.7033  -0.7001  -0.6775  -0.6757  -0.6689  -0.6660  -0.6655
    -0.6612  -0.6541  -0.6531  -0.6472  -0.6433  -0.6396  -0.6386  -0.6135
    -0.6106  -0.5638  -0.5478  -0.5341  -0.5247  -0.5179  -0.5143  -0.5090
    -0.5056  -0.4938  -0.4766  -0.4666  -0.4603  -0.4371  -0.4283  -0.4251
    -0.4218  -0.4141  -0.4084  -0.3995  -0.3948  -0.3881  -0.3761  -0.3703
    -0.3658  -0.3625  -0.3560  -0.3517  -0.3434  -0.3116  -0.2942  -0.2831
    -0.2780  -0.2761  -0.2598  -0.2520  -0.2420  -0.2315  -0.2299  -0.2264
    -0.2256  -0.2211  -0.2206  -0.2135  -0.2058  -0.1861  -0.1614  -0.1540
    -0.1488  -0.1431  -0.1390  -0.1367  -0.1349  -0.1310  -0.1285  -0.1264
    -0.1242  -0.1140  -0.1060  -0.1049  -0.1029  -0.0985  -0.0908  -0.0849
    -0.0832  -0.0799  -0.0748  -0.0694  -0.0600  -0.0533  -0.0373  -0.0139
    -0.0095  -0.0042   0.0015   0.0130   0.0432   0.0493   0.0595   0.0652
     0.0680   0.0729   0.0749   0.0770   0.0790   0.0839   0.0916   0.0960
     0.1012   0.1032   0.1074   0.1119   0.1138   0.1198   0.1231   0.1274
     0.1311   0.1331   0.1347   0.1362   0.1370   0.1400   0.1414   0.1447
     0.1480   0.1525   0.1571   0.1656   0.1726   0.1803   0.1849   0.1914
     0.1957   0.2050   0.2140   0.2185   0.2285   0.2351   0.2406   0.2424
     0.2506   0.2547   0.2664   0.2707   0.2759   0.2797   0.3153   0.3263
     0.3397   0.3403   0.3458   0.3531   0.3664   0.3758   0.3793   0.3809
     0.3921   0.3935   0.3981   0.4016   0.4088   0.4098   0.4143   0.4175
     0.4218   0.4298   0.4337   0.4471   0.4592   0.4627   0.4691   0.4748
     0.4779   0.4815   0.4817   0.4849   0.4864   0.4877   0.4933   0.4989
     0.5027   0.5073   0.5128   0.5213   0.5243   0.5250   0.5359   0.5436
     0.5539   0.5576   0.5661   0.5665   0.5693   0.5727   0.5789   0.5832
     0.5905   0.5923   0.5935   0.5968   0.6034   0.6113   0.6174   0.6193
     0.6206   0.6253   0.6255   0.6289   0.6365   0.6411   0.6417   0.6457
     0.6485   0.6667   0.6727   0.6753   0.6821   0.6843   0.6915   0.6936
     0.6974   0.7001   0.7078   0.7093   0.7128   0.7159   0.7226   0.7282
     0.7333   0.7389   0.7400   0.7446   0.7499   0.7514   0.7540   0.7573
     0.7615   0.7643   0.7721   0.7778   0.7904   0.8005   0.8076   0.8219
     0.8240   0.8276   0.8282   0.8379   0.8517   0.8613   0.8682   0.8749
     0.8785   0.8805   0.8836   0.8854   0.8874   0.9102   0.9286   0.9323
     0.9399   0.9417   0.9456   0.9504   0.9562   0.9670   0.9703   0.9783
     0.9844   0.9876   0.9936   0.9957   1.0017   1.0051   1.0088   1.0188
[...]
     4.1519   4.1936   4.2357   4.2392   4.2669   4.2883   4.3840   4.5050
     4.5147   4.5755   4.6162   4.6773   4.6912   4.7972   4.8572   5.0736
     5.0760   5.1190   5.1346   5.1433   5.1602   5.1913   5.2069   5.2165
     5.2678   5.2768   5.2867   5.3578   5.3636   5.4162   5.5057   5.5412
     5.5902   5.5950   5.6028   5.6124   5.6434   5.6953   5.7441   5.7568
     5.7825   5.7981   5.9927   5.9956   6.0932   6.1202   6.2041   6.6974
     6.7227   6.9208   6.9425   7.0083   7.0117   7.0367   7.0443   7.0597
     7.0868   7.1083   7.1279   7.1392   7.1433   7.2070   7.2604   7.3423
     7.3635   7.3831   7.4032   7.4319   7.4595   7.5437   7.7420   7.8733
     7.8830   7.9998   8.1116   8.1453   8.2033   8.2253   8.2860   8.2966
     8.3577   8.3754   8.3944   8.4141   8.4151   8.4773   8.5978   8.8123
     8.8370   8.8478   8.8647   8.8906   8.9153   8.9284   8.9319   8.9583
     8.9808   9.0464   9.0998   9.1044   9.1263   9.1421   9.1738   9.3584
     9.3705   9.3905   9.3961   9.4196   9.4219   9.4302   9.4428   9.4583
     9.4693   9.5881   9.7718   9.8721  10.0034

     the Fermi energy is     3.3259 ev

!    total energy              =  -12750.12305343 Ry
     Harris-Foulkes estimate   =  -12750.12305347 Ry
     estimated scf accuracy    <          8.9E-09 Ry

     The total energy is the sum of the following terms:

     one-electron contribution = -100212.22453758 Ry
     hartree contribution      =   51475.32551607 Ry
     xc contribution           =   -4456.75496112 Ry
     ewald contribution        =   40449.73041048 Ry
     Dispersion Correction     =      -2.79637894 Ry
     smearing contrib. (-TS)   =      -3.40310234 Ry

     convergence has been achieved in  43 iterations

     Writing output data file gc.save

     General routines

     Parallel routines

   This run was terminated on:   1: 0:33  17Sep2017

   JOB DONE.