     Program PWSCF v.5.4.0 starts on 26Apr2017 at 20:41: 2

     Current dimensions of program PWSCF are:
     Max number of different atomic species (ntypx) = 10
     Max number of k-points (npk) =  40000
     Max angular momentum in pseudopotentials (lmaxx) =  3

     Parameters for Dispersion Correction:
       atom      VdW radius       C_6

        Cu         2.952        374.666
        C_h        2.744         60.710
        C          2.744         60.710
        H          1.892          4.857

     bravais-lattice index     =            0
     lattice parameter (alat)  =      13.9425  a.u.
     unit-cell volume          =   21209.0878 (a.u.)^3
     number of atoms/cell      =          154
     number of atomic types    =            4
     number of electrons       =      1304.00
     number of Kohn-Sham states=          782
     kinetic-energy cutoff     =      80.0000  Ry
     charge density cutoff     =     320.0000  Ry
     convergence threshold     =      1.0E-08
     mixing beta               =       0.7000
     number of iterations used =            8  local-TF  mixing
     Exchange-correlation      =  SLA  PW   PBE  PBE ( 1  4  3  4 0 0)

     celldm(1)=  13.942539  celldm(2)=   0.000000  celldm(3)=   0.000000
     celldm(4)=   0.000000  celldm(5)=   0.000000  celldm(6)=   0.000000

     crystal axes: (cart. coord. in units of alat)
               a(1) = (   1.000000   0.000000   0.000000 )
               a(2) = (   0.000000   2.309401   0.000000 )
               a(3) = (   0.000000   0.000000   3.388418 )

     reciprocal axes: (cart. coord. in units 2 pi/alat)
               b(1) = (  1.000000  0.000000  0.000000 )
               b(2) = (  0.000000  0.433013  0.000000 )
               b(3) = (  0.000000  0.000000  0.295123 )

     PseudoPot. # 1 for Cu read from file:
     /home/549/hxw549/Short/pseudopotentials/Cu.pbe-n-van_ak.UPF
     MD5 check sum: 601f7c30f7467666bec936e0661ce3e1
     Pseudo is Ultrasoft + core correction, Zval = 11.0
     Generated by new atomic code, or converted to UPF format
     Using radial grid of  867 points,  6 beta functions with:
                l(1) =   0
                l(2) =   0
                l(3) =   1
                l(4) =   1
                l(5) =   2
                l(6) =   2
     Q(r) pseudized with  8 coefficients,  rinner =    1.400   1.400   1.400
                                                       1.400   1.400

     PseudoPot. # 2 for C  read from file:
     /home/549/hxw549/Short/pseudopotentials/C.star1s-pbe-mt_gipaw.UPF
     MD5 check sum: ef0cb3dee31bd9e4ba2a832a2c716264
     Pseudo is Norm-conserving, Zval =  5.0
     Generated by new atomic code, or converted to UPF format
     Using radial grid of 1073 points,  1 beta functions with:
                l(1) =   0

     PseudoPot. # 3 for C  read from file:
     /home/549/hxw549/Short/pseudopotentials/C.pbe-mt_gipaw.UPF
     MD5 check sum: 5ac2f21f2c440b14befe521540822c15
     Pseudo is Norm-conserving, Zval =  4.0
     Generated by new atomic code, or converted to UPF format
     Using radial grid of 1073 points,  1 beta functions with:
                l(1) =   0

     PseudoPot. # 4 for H  read from file:
     /home/549/hxw549/Short/pseudopotentials/H.pbe-van_ak.UPF
     MD5 check sum: 077eb6d537518a38cb46c6de387227b7
     Pseudo is Ultrasoft, Zval =  1.0
     Generated by new atomic code, or converted to UPF format
     Using radial grid of  615 points,  1 beta functions with:
                l(1) =   0
     Q(r) pseudized with  8 coefficients,  rinner =    0.800

     atomic species   valence    mass     pseudopotential
        Cu            11.00    63.54600     Cu( 1.00)
        C_h            5.00    12.01070     C ( 1.00)
        C              4.00    12.01070     C ( 1.00)
        H              1.00     1.00783     H ( 1.00)

     No symmetry found

   Cartesian axes

     site n.     atom                  positions (alat units)
         1           Cu  tau(   1) = (   0.0002043  -0.0025717   0.9942108  )
         2           Cu  tau(   2) = (   0.2502613   0.2244800   0.9935968  )
         3           Cu  tau(   3) = (   0.5002401  -0.0038862   0.9924746  )
         4           Cu  tau(   4) = (   0.7502060   0.2245063   0.9935693  )
         5           Cu  tau(   5) = (   0.0002385   0.4557669   0.9935004  )
         6           Cu  tau(   6) = (   0.2507651   0.6896551   0.9949714  )
         7           Cu  tau(   7) = (   0.5002412   0.4563759   0.9953699  )
         8           Cu  tau(   8) = (   0.7497243   0.6896526   0.9949528  )
         9           Cu  tau(   9) = (   0.0002741   0.9239688   0.9944310  )
        10           Cu  tau(  10) = (   0.2507484   1.1588995   0.9942913  )
        11           Cu  tau(  11) = (   0.5002229   0.9239521   0.9954916  )
        12           Cu  tau(  12) = (   0.7497205   1.1588751   0.9942577  )
        13           Cu  tau(  13) = (   0.0002005   1.3941797   0.9917183  )
        14           Cu  tau(  14) = (   0.2501890   1.6270419   0.9911099  )
        15           Cu  tau(  15) = (   0.5002472   1.3936651   0.9934814  )
        16           Cu  tau(  16) = (   0.7502464   1.6270434   0.9911362  )
        17           Cu  tau(  17) = (   0.0002210   1.8550921   0.9925404  )
        18           Cu  tau(  18) = (   0.2495825   2.0811673   0.9931877  )
        19           Cu  tau(  19) = (   0.5001965   1.8563988   0.9902085  )
        20           Cu  tau(  20) = (   0.7508427   2.0811476   0.9932235  )
        21           Cu  tau(  21) = (   0.0002482   0.2242931   1.2447837  )
        22           Cu  tau(  22) = (   0.2498761  -0.0033647   1.2471709  )
        23           Cu  tau(  23) = (   0.5002534   0.2222256   1.2422400  )
        24           Cu  tau(  24) = (   0.7506131  -0.0032893   1.2472346  )
        25           Cu  tau(  25) = (   0.0002667   0.6880630   1.2386669  )
        26           Cu  tau(  26) = (   0.2499562   0.4537637   1.2405942  )
        27           Cu  tau(  27) = (   0.5002943   0.6886442   1.2414404  )
        28           Cu  tau(  28) = (   0.7505742   0.4537472   1.2405793  )
        29           Cu  tau(  29) = (   0.0002476   1.1616965   1.2368574  )
        30           Cu  tau(  30) = (   0.2501502   0.9246196   1.2399440  )
        31           Cu  tau(  31) = (   0.5002819   1.1610726   1.2392902  )
        32           Cu  tau(  32) = (   0.7504072   0.9246098   1.2398995  )
        33           Cu  tau(  33) = (   0.0002198   1.6276529   1.2413369  )
        34           Cu  tau(  34) = (   0.2500613   1.3973758   1.2371512  )
        35           Cu  tau(  35) = (   0.5002401   1.6298765   1.2389540  )
        36           Cu  tau(  36) = (   0.7504172   1.3973475   1.2371744  )
        37           Cu  tau(  37) = (   0.0002075   2.0807183   1.2476202  )
        38           Cu  tau(  38) = (   0.2497642   1.8554798   1.2448912  )
        39           Cu  tau(  39) = (   0.5002618   2.0801741   1.2465346  )
        40           Cu  tau(  40) = (   0.7507077   1.8554268   1.2449327  )
        41           Cu  tau(  41) = (   0.0002334  -0.0025479   1.5022411  )
        42           Cu  tau(  42) = (   0.2492996   0.2254476   1.4970463  )
        43           Cu  tau(  43) = (   0.5003214  -0.0027157   1.4992700  )
        44           Cu  tau(  44) = (   0.7512954   0.2255017   1.4971177  )
        45           Cu  tau(  45) = (   0.0003236   0.4551980   1.4912380  )
        46           Cu  tau(  46) = (   0.2489867   0.6863144   1.4839175  )
        47           Cu  tau(  47) = (   0.5002861   0.4519356   1.4867713  )
        48           Cu  tau(  48) = (   0.7516492   0.6862933   1.4839869  )
        49           Cu  tau(  49) = (   0.0002891   0.9256767   1.4809594  )
        50           Cu  tau(  50) = (   0.2492486   1.1657936   1.4807251  )
        51           Cu  tau(  51) = (   0.5003544   0.9256491   1.4819086  )
        52           Cu  tau(  52) = (   0.7513260   1.1657516   1.4807751  )
        53           Cu  tau(  53) = (   0.0002539   1.3977035   1.4865052  )
        54           Cu  tau(  54) = (   0.2494736   1.6273793   1.4925966  )
        55           Cu  tau(  55) = (   0.5002895   1.4001490   1.4829612  )
        56           Cu  tau(  56) = (   0.7510670   1.6273340   1.4927039  )
        57           Cu  tau(  57) = (   0.0002574   1.8538138   1.5005000  )
        58           Cu  tau(  58) = (   0.2505253   2.0800732   1.5028238  )
        59           Cu  tau(  59) = (   0.5002697   1.8533783   1.4989645  )
        60           Cu  tau(  60) = (   0.7500065   2.0800441   1.5027965  )
[...]
       103           C   tau( 103) = (   0.1666439   0.0023668   2.4080360  )
       104           C   tau( 104) = (   0.1667082   0.3864411   2.4688191  )
       105           C   tau( 105) = (   0.3333383   0.0990832   2.4193349  )
       106           C   tau( 106) = (   0.3334728   0.2909126   2.4500476  )
       107           C   tau( 107) = (   0.4999784   0.0017143   2.4092302  )
       108           C   tau( 108) = (   0.4999661   0.3868195   2.4710727  )
       109           C   tau( 109) = (   0.6666262   0.0992659   2.4189926  )
       110           C   tau( 110) = (   0.6664596   0.2910804   2.4501051  )
       111           C   tau( 111) = (   0.8332539   0.0023779   2.4079829  )
       112           C   tau( 112) = (   0.8332277   0.3866350   2.4687918  )
       113           C   tau( 113) = (   0.0000403   0.6720196   2.5268195  )
       114           C   tau( 114) = (  -0.0000986   0.8652796   2.5438154  )
       115           C   tau( 115) = (   0.1668103   0.5757926   2.5119236  )
       116           C   tau( 116) = (   0.1665600   0.9627473   2.5465274  )
       117           C   tau( 117) = (   0.3330312   0.6712277   2.5370352  )
       118           C_h tau( 118) = (   0.3329260   0.8649803   2.5584709  )
       119           C   tau( 119) = (   0.4999678   0.5758834   2.5165222  )
       120           C   tau( 120) = (   0.4998989   0.9628021   2.5587465  )
       121           C   tau( 121) = (   0.6668989   0.6713415   2.5368545  )
       122           C   tau( 122) = (   0.6667893   0.8649923   2.5586673  )
       123           C   tau( 123) = (   0.8331901   0.5761062   2.5113005  )
       124           C   tau( 124) = (   0.8331969   0.9626897   2.5461120  )
       125           C   tau( 125) = (  -0.0000243   1.2500548   2.4972855  )
       126           C   tau( 126) = (  -0.0000698   1.4397649   2.4566319  )
       127           C   tau( 127) = (   0.1667246   1.1549732   2.5191366  )
       128           C   tau( 128) = (   0.1668110   1.5354076   2.4386302  )
       129           C   tau( 129) = (   0.3337215   1.2505483   2.5022062  )
       130           C   tau( 130) = (   0.3335665   1.4402136   2.4597849  )
       131           C   tau( 131) = (   0.5000231   1.1549272   2.5262646  )
       132           C   tau( 132) = (   0.4999542   1.5364756   2.4422660  )
       133           C   tau( 133) = (   0.6663535   1.2507838   2.5026745  )
       134           C   tau( 134) = (   0.6663273   1.4403280   2.4596502  )
       135           C   tau( 135) = (   0.8332364   1.1550018   2.5191954  )
       136           C   tau( 136) = (   0.8330873   1.5356002   2.4386624  )
       137           C   tau( 137) = (   0.0000116   1.8253202   2.4018558  )
       138           C   tau( 138) = (   0.0000196   2.0197421   2.3966618  )
       139           C   tau( 139) = (   0.1668197   1.7277230   2.4111725  )
       140           C   tau( 140) = (   0.1665746   2.1176017   2.3972421  )
       141           C   tau( 141) = (   0.3331845   1.8256422   2.4066204  )
       142           C   tau( 142) = (   0.3332534   2.0196932   2.3984457  )
       143           C   tau( 143) = (   0.4999370   1.7289126   2.4167529  )
       144           C   tau( 144) = (   0.5000099   2.1170870   2.4001936  )
       145           C   tau( 145) = (   0.6667327   1.8257007   2.4067262  )
       146           C   tau( 146) = (   0.6667417   2.0197320   2.3984131  )
       147           C   tau( 147) = (   0.8331274   1.7279717   2.4117050  )
       148           C   tau( 148) = (   0.8334572   2.1176137   2.3974753  )
       149           H   tau( 149) = (   0.3319518   0.9970929   2.2372295  )
       150           H   tau( 150) = (   0.3375949   0.7492820   2.2231231  )
       151           C   tau( 151) = (   0.4041456   0.8783738   2.1864677  )
       152           C   tau( 152) = (   0.5984102   0.8800587   2.1857443  )
       153           H   tau( 153) = (   0.6686529   0.9999537   2.2365904  )
       154           H   tau( 154) = (   0.6674899   0.7523297   2.2227089  )

     number of k points=     6  gaussian smearing, width (Ry)=  0.1000
                       cart. coord. in units 2pi/alat
        k(    1) = (   0.0000000   0.0000000   0.0000000), wk =   0.2500000
        k(    2) = (   0.0000000  -0.2165064   0.0000000), wk =   0.2500000
        k(    3) = (   0.2500000   0.0000000   0.0000000), wk =   0.5000000
        k(    4) = (   0.2500000  -0.2165064   0.0000000), wk =   0.5000000
        k(    5) = (  -0.5000000   0.0000000   0.0000000), wk =   0.2500000
        k(    6) = (  -0.5000000  -0.2165064   0.0000000), wk =   0.2500000

     Largest allocated arrays     est. size (Mb)     dimensions
     Largest temporary arrays     est. size (Mb)     dimensions

     Initial potential from superposition of free atoms
     Check: negative starting charge=   -0.001699

     starting charge 1277.81747, renormalised to 1304.00000

     negative rho (up, down):  1.734E-03 0.000E+00
     Starting wfc are 1304 randomized atomic wfcs

     Self-consistent Calculation

     iteration #  1     ecut=    80.00 Ry     beta=0.70
     Davidson diagonalization with overlap
     c_bands:  2 eigenvalues not converged
     c_bands:  5 eigenvalues not converged
     c_bands:  5 eigenvalues not converged
     ethr =  1.00E-04,  avg # of iterations = 44.8

     negative rho (up, down):  2.553E+01 0.000E+00

     total energy              =   -9862.26256931 Ry
     Harris-Foulkes estimate   =  -18067.89742133 Ry
     estimated scf accuracy    <  202911.43796991 Ry

     iteration #  2     ecut=    80.00 Ry     beta=0.70
     Davidson diagonalization with overlap
     ethr =  1.00E-02,  avg # of iterations = 15.8

[...]

     iteration # 39     ecut=    80.00 Ry     beta=0.70
     Davidson diagonalization with overlap
     c_bands:  1 eigenvalues not converged
     ethr =  1.94E-10,  avg # of iterations = 10.8

[...]

     total energy              =  -12734.52691777 Ry
     Harris-Foulkes estimate   =  -12734.52691775 Ry
     estimated scf accuracy    <       0.00000004 Ry

     iteration # 43     ecut=    80.00 Ry     beta=0.70
     Davidson diagonalization with overlap
     ethr =  3.01E-12,  avg # of iterations =  2.0

     negative rho (up, down):  1.834E-03 0.000E+00

     End of self-consistent calculation

          k = 0.0000 0.0000 0.0000 (256287 PWs)   bands (ev):

   -16.9230 -15.9230 -15.7233 -15.0900 -14.7262 -14.4497 -14.3260 -13.9441
   -13.8924 -13.7743 -13.7572 -13.1706 -13.0284 -12.8388 -12.8155 -12.7702
   -12.7634 -12.3450 -11.4158 -11.2382 -11.2037 -11.1007 -11.0081 -10.0213
    -9.5216  -9.4798  -9.3249  -9.2577  -8.6637  -8.4826  -8.3319  -8.2520
    -8.0894  -7.7691  -7.5906  -7.5191  -7.3593  -7.2642  -7.2538  -7.2126
    -7.1771  -6.0934  -6.0867  -5.8885  -5.8467  -5.7394  -5.6789  -5.6415
    -5.6191  -5.6019  -5.3976  -5.3643  -5.2272  -5.0661  -4.8145  -4.6222
    -4.5818  -4.4473  -4.3762  -4.2796  -4.2518  -4.1395  -3.8858  -3.8571
    -3.8006  -3.7704  -3.6993  -3.6634  -3.3741  -3.3643  -3.2779  -3.2731
    -3.2721  -3.1750  -3.1572  -3.1365  -3.0652  -2.9348  -2.9137  -2.8852
    -2.8821  -2.8800  -2.8705  -2.7790  -2.7519  -2.7218  -2.6888  -2.6534
    -2.6187  -2.5851  -2.5404  -2.5259  -2.5104  -2.4062  -2.4009  -2.3312
    -2.2457  -2.1754  -2.1680  -2.1359  -2.1299  -2.0721  -2.0625  -2.0385
    -2.0356  -2.0332  -2.0310  -1.9677  -1.9435  -1.9084  -1.9068  -1.8778
    -1.8770  -1.8331  -1.8279  -1.7367  -1.6874  -1.6711  -1.6637  -1.6557
    -1.6472  -1.6192  -1.6151  -1.5982  -1.5940  -1.5816  -1.5488  -1.5237
    -1.5223  -1.5184  -1.4847  -1.4529  -1.4444  -1.4421  -1.4369  -1.4323
    -1.4240  -1.4194  -1.4055  -1.3985  -1.3982  -1.3907  -1.3310  -1.3248
    -1.2888  -1.2506  -1.2411  -1.2334  -1.2190  -1.1901  -1.1836  -1.1625
    -1.1612  -1.1473  -1.1229  -1.1048  -1.1014  -1.0949  -1.0772  -1.0667
    -1.0379  -1.0351  -1.0269  -1.0001  -0.9537  -0.9508  -0.9477  -0.9334
    -0.9322  -0.9223  -0.9215  -0.9169  -0.9030  -0.9006  -0.8986  -0.8877
    -0.8767  -0.8738  -0.8685  -0.8639  -0.8596  -0.8350  -0.8285  -0.8208
    -0.8111  -0.8053  -0.7900  -0.7816  -0.7796  -0.7728  -0.7655  -0.7509
    -0.7419  -0.7354  -0.7345  -0.7298  -0.7288  -0.7249  -0.7217  -0.7191
    -0.7161  -0.7139  -0.7076  -0.7035  -0.6934  -0.6691  -0.6523  -0.6438
    -0.6405  -0.5934  -0.5924  -0.5844  -0.5699  -0.5684  -0.5622  -0.5513
    -0.5343  -0.5233  -0.5192  -0.5155  -0.5025  -0.4963  -0.4796  -0.4740
    -0.4688  -0.4629  -0.4546  -0.4498  -0.4462  -0.4419  -0.4403  -0.4345
    -0.4250  -0.4197  -0.4164  -0.4014  -0.3783  -0.3738  -0.3675  -0.3497
    -0.3387  -0.3190  -0.3089  -0.3003  -0.2974  -0.2902  -0.2876  -0.2862
    -0.2839  -0.2819  -0.2804  -0.2780  -0.2754  -0.2711  -0.2674  -0.2627
    -0.2595  -0.2379  -0.2325  -0.2250  -0.2185  -0.1963  -0.1939  -0.1889
    -0.1675  -0.1642  -0.1636  -0.1628  -0.1493  -0.1465  -0.1368  -0.1326
    -0.1295  -0.1238  -0.1216  -0.1145  -0.1115  -0.1094  -0.1030  -0.0989
    -0.0952  -0.0931  -0.0882  -0.0700  -0.0682  -0.0675  -0.0667  -0.0593
    -0.0515  -0.0377  -0.0305  -0.0270  -0.0131  -0.0048   0.0020   0.0163
     0.0200   0.0241   0.0270   0.0339   0.0432   0.0582   0.0613   0.0654
     0.0664   0.0721   0.0774   0.0803   0.0918   0.0947   0.1043   0.1234
     0.1258   0.1317   0.1346   0.1424   0.1460   0.1501   0.1512   0.1622
     0.1627   0.1659   0.1765   0.1805   0.1820   0.1852   0.1872   0.1982
     0.2019   0.2100   0.2121   0.2231   0.2262   0.2368   0.2416   0.2476
     0.2493   0.2597   0.2715   0.2786   0.2836   0.2894   0.2917   0.3254
     0.3270   0.3312   0.3344   0.3386   0.3702   0.3709   0.3803   0.3878
     0.3957   0.3997   0.4127   0.4154   0.4203   0.4392   0.4483   0.4608
     0.4624   0.4713   0.4795   0.4812   0.4851   0.4903   0.4950   0.5020
     0.5103   0.5131   0.5152   0.5259   0.5339   0.5380   0.5413   0.5477
     0.5480   0.5771   0.5811   0.5878   0.5911   0.5985   0.6032   0.6048
     0.6085   0.6129   0.6225   0.6263   0.6390   0.6398   0.6514   0.6560
     0.6570   0.6617   0.6647   0.6658   0.6718   0.6777   0.6853   0.6862
     0.6872   0.6885   0.6903   0.6962   0.7062   0.7105   0.7228   0.7254
     0.7276   0.7307   0.7359   0.7452   0.7453   0.7574   0.7640   0.7661
     0.7688   0.7711   0.7821   0.7905   0.7930   0.8002   0.8025   0.8047
     0.8059   0.8099   0.8120   0.8204   0.8326   0.8346   0.8377   0.8389
     0.8474   0.8544   0.8577   0.8629   0.8668   0.8682   0.8690   0.8703
     0.8745   0.8876   0.8946   0.8993   0.9051   0.9157   0.9177   0.9219
     0.9389   0.9414   0.9582   0.9598   0.9600   0.9648   0.9697   0.9721
     0.9748   0.9782   0.9897   0.9957   0.9966   1.0014   1.0100   1.0117
     1.0151   1.0176   1.0261   1.0282   1.0346   1.0415   1.0463   1.0487
     1.0545   1.0574   1.0650   1.0702   1.0791   1.0882   1.1001   1.1061
[...]
     3.9814   3.9925   4.0504   4.0616   4.0755   4.0859   4.1128   4.1174
     4.1291   4.1343   4.2454   4.2865   4.3011   4.3084   4.4009   4.5910
     4.8061   4.8718   4.9041   5.0689   5.1170   5.1633   5.3092   5.4022
     5.4347   5.5416   5.6001   5.7292   5.7483   5.9318   6.0305   6.1182
     6.1283   6.3436   6.3559   6.3952   6.4839   6.5052   6.5230   6.5802
     6.6156   6.7009   6.7304   6.7772   6.8185   6.8449   6.8471   6.9042
     6.9309   6.9530   6.9602   7.1209   7.1377   7.1543   7.2065   7.2432
     7.4017   7.4837   7.5435   7.5902   7.6533   7.7189   7.7355   7.7964
     7.8750   7.9697   8.0479   8.0812   8.1500   8.2066   8.2342   8.2597
     8.2933   8.3735   8.3851   8.4084   8.4285   8.4434   8.4562   8.4948
     8.5454   8.6448   8.6473   8.7188   8.7224   8.7234   8.7317   8.7747
     8.7891   8.8961   8.8997   8.9282   9.0036   9.0177   9.0236   9.1034
     9.1137   9.1284   9.2064   9.2677   9.2752   9.3447   9.4251   9.4461
     9.4497   9.5135   9.5793   9.6195   9.6879   9.7538   9.7814   9.8345
     9.8680   9.9514   9.9908  10.1192  10.1539  10.1748

[...]

          k = 0.2500-0.2165 0.0000 (256316 PWs)   bands (ev):

[...]

          k =-0.5000 0.0000 0.0000 (256496 PWs)   bands (ev):

[...]

          k =-0.5000-0.2165 0.0000 (256328 PWs)   bands (ev):

   -16.8105 -15.6104 -15.4910 -15.4705 -15.0429 -14.8894 -14.8205 -14.7781
   -13.7526 -13.5363 -13.4056 -13.3709 -12.4222 -12.2803 -12.0676 -11.6899
   -11.6631 -11.6413 -11.4983 -11.4066 -11.3522 -11.2072 -11.1960 -11.1008
   -11.0849  -9.7248  -9.7042  -9.4740  -9.4319  -8.9679  -8.6559  -8.5275
    -8.5084  -8.1109  -8.0081  -7.9781  -7.7858  -7.7700  -6.3132  -5.9977
    -5.9187  -5.7383  -5.6045  -5.3652  -5.2582  -5.0915  -5.0828  -5.0503
    -5.0477  -5.0413  -5.0346  -5.0339  -4.8755  -4.8147  -4.6647  -4.6519
    -4.1718  -4.0869  -4.0857  -4.0809  -4.0654  -4.0648  -4.0559  -4.0465
    -3.9924  -3.9535  -3.9362  -3.8853  -3.8738  -3.8048  -3.6462  -3.6399
    -3.6340  -3.5112  -3.4928  -3.4679  -3.4374  -3.4196  -3.4127  -3.3671
    -3.2350  -3.2147  -3.1327  -3.1084  -3.0621  -2.9106  -2.8591  -2.7817
    -2.5587  -2.5131  -2.4602  -2.4559  -2.4519  -2.4457  -2.4319  -2.4181
    -2.4015  -2.3631  -2.3470  -2.2112  -2.1552  -2.0819  -1.9707  -1.9580
    -1.9554  -1.9411  -1.9296  -1.9184  -1.9008  -1.8950  -1.8378  -1.8065
    -1.7651  -1.7022  -1.6803  -1.6796  -1.6642  -1.6388  -1.5922  -1.4827
    -1.4716  -1.4689  -1.4401  -1.4196  -1.4053  -1.3773  -1.3739  -1.3689
    -1.3615  -1.3566  -1.3296  -1.3253  -1.3149  -1.2924  -1.2919  -1.2829
    -1.2787  -1.2723  -1.2660  -1.2640  -1.2571  -1.2548  -1.2499  -1.2470
    -1.2432  -1.2373  -1.2357  -1.2329  -1.2288  -1.2016  -1.1930  -1.1882
    -1.1726  -1.1636  -1.1457  -1.1197  -1.0990  -1.0893  -1.0784  -1.0778
    -1.0684  -1.0668  -1.0641  -1.0598  -1.0391  -1.0354  -1.0226  -1.0214
    -1.0159  -1.0122  -1.0011  -0.9982  -0.9942  -0.9935  -0.9774  -0.9732
    -0.9631  -0.9596  -0.9543  -0.9502  -0.9440  -0.9426  -0.9353  -0.9327
    -0.9177  -0.9168  -0.9037  -0.9003  -0.8981  -0.8949  -0.8856  -0.8769
    -0.8549  -0.8431  -0.7985  -0.7834  -0.7611  -0.7490  -0.7412  -0.7395
    -0.7380  -0.7306  -0.7172  -0.6799  -0.6669  -0.6521  -0.6476  -0.6474
    -0.6418  -0.6352  -0.6346  -0.6312  -0.6267  -0.6219  -0.5983  -0.5839
    -0.5780  -0.5762  -0.5719  -0.5688  -0.5599  -0.5520  -0.5485  -0.5457
    -0.5454  -0.5119  -0.5083  -0.4777  -0.4372  -0.4362  -0.4262  -0.4222
    -0.4181  -0.4178  -0.3988  -0.3792  -0.3747  -0.3736  -0.3552  -0.3391
    -0.3381  -0.3265  -0.3232  -0.3198  -0.3042  -0.3032  -0.2983  -0.2962
    -0.2732  -0.2725  -0.2693  -0.2645  -0.2628  -0.2627  -0.2135  -0.2088
    -0.2006  -0.1987  -0.1871  -0.1835  -0.1698  -0.1496  -0.1486  -0.1318
    -0.1291  -0.1287  -0.1274  -0.1272  -0.1205  -0.1199  -0.1139  -0.0839
    -0.0676  -0.0652  -0.0526  -0.0459  -0.0450  -0.0431  -0.0393  -0.0390
    -0.0345  -0.0311  -0.0260  -0.0129  -0.0063  -0.0033   0.0047   0.0060
     0.0075   0.0104   0.0163   0.0164   0.0276   0.0290   0.0412   0.0425
     0.0509   0.0628   0.0835   0.0909   0.0968   0.1130   0.1180   0.1414
     0.1459   0.1698   0.1717   0.1742   0.1753   0.1765   0.1813   0.1851
     0.1864   0.1931   0.1965   0.2029   0.2095   0.2123   0.2155   0.2186
     0.2193   0.2239   0.2260   0.2287   0.2333   0.2378   0.2417   0.2440
     0.2449   0.2486   0.2492   0.2541   0.2666   0.2677   0.2755   0.2761
     0.2812   0.2886   0.2929   0.3004   0.3016   0.3045   0.3123   0.3210
     0.3277   0.3316   0.3365   0.3483   0.3562   0.3630   0.3727   0.3760
     0.3791   0.4063   0.4176   0.4310   0.4312   0.4387   0.4618   0.4619
     0.4726   0.4758   0.4825   0.4846   0.4919   0.5014   0.5077   0.5088
     0.5113   0.5136   0.5181   0.5212   0.5257   0.5310   0.5350   0.5372
     0.5552   0.5601   0.5639   0.5682   0.5713   0.5744   0.5797   0.5826
     0.5848   0.5868   0.5896   0.5912   0.5941   0.5967   0.5995   0.6044
     0.6092   0.6172   0.6220   0.6329   0.6461   0.6538   0.6563   0.6586
     0.6631   0.6666   0.6726   0.6734   0.6772   0.6804   0.6845   0.6864
     0.6901   0.6962   0.6985   0.7018   0.7058   0.7133   0.7155   0.7170
     0.7225   0.7298   0.7305   0.7347   0.7367   0.7436   0.7513   0.7579
     0.7657   0.7741   0.7746   0.7832   0.7879   0.7959   0.7969   0.7985
     0.8001   0.8108   0.8128   0.8166   0.8173   0.8244   0.8364   0.8404
     0.8437   0.8447   0.8459   0.8502   0.8553   0.8586   0.8606   0.8615
     0.8654   0.8703   0.8929   0.8999   0.9024   0.9110   0.9127   0.9186
     0.9300   0.9324   0.9367   0.9410   0.9462   0.9537   0.9691   0.9715
     0.9847   0.9898   0.9902   0.9921   0.9959   0.9970   1.0092   1.0129
     1.0355   1.0484   1.0542   1.0573   1.0600   1.0830   1.0919   1.0964
[...]
     4.3044   4.3132   4.3182   4.3361   4.3537   4.3601   4.4362   4.4557
     4.6257   4.6545   4.7042   4.7248   4.7736   4.7970   4.9149   4.9886
     4.9996   5.0402   5.0766   5.1052   5.1613   5.1940   5.2225   5.2414
     5.2631   5.2851   5.3291   5.3460   5.3541   5.3920   5.4340   5.4575
     5.4837   5.6634   5.7361   5.7721   5.7911   5.7928   5.8278   5.8289
     5.8359   5.8575   5.8854   5.9030   5.9149   6.3473   6.3561   6.7197
     6.7703   7.0475   7.0579   7.0894   7.1242   7.1837   7.2008   7.2123
     7.2340   7.2354   7.2626   7.2838   7.2998   7.3926   7.4001   7.4560
     7.4900   7.5163   7.5736   7.5757   7.6019   7.6942   7.7710   7.8613
     7.9686   7.9754   8.0288   8.0349   8.0582   8.1747   8.2533   8.2947
     8.3374   8.3961   8.4016   8.4223   8.4270   8.4756   8.8636   8.9449
     8.9547   8.9691   8.9819   8.9835   8.9883   9.0057   9.0613   9.0813
     9.1272   9.1626   9.1812   9.1861   9.2035   9.2336   9.3000   9.3026
     9.3626   9.3752   9.4106   9.4740   9.5319   9.5431   9.5513   9.5656
     9.5759   9.6947   9.8785   9.9492   9.9686  10.0132

     the Fermi energy is     3.4409 ev

!    total energy              =  -12734.52691777 Ry
     Harris-Foulkes estimate   =  -12734.52691778 Ry
     estimated scf accuracy    <          9.4E-09 Ry

     The total energy is the sum of the following terms:

     one-electron contribution = -104203.73005845 Ry
     hartree contribution      =   53473.56547884 Ry
     xc contribution           =   -4456.84869196 Ry
     ewald contribution        =   42458.78147312 Ry
     Dispersion Correction     =      -2.93421543 Ry
     smearing contrib. (-TS)   =      -3.36090389 Ry

     convergence has been achieved in  43 iterations

     Writing output data file gc.save

     General routines

     Parallel routines

   This run was terminated on:   0:40: 3  27Apr2017

   JOB DONE.