     Program PWSCF v.5.4.0 starts on  7Apr2017 at 16:56:47

     Current dimensions of program PWSCF are:
     Max number of different atomic species (ntypx) = 10
     Max number of k-points (npk) =  40000
     Max angular momentum in pseudopotentials (lmaxx) =  3

     Parameters for Dispersion Correction:
       atom      VdW radius       C_6

        Cu         2.952        374.666

     bravais-lattice index     =            0
     lattice parameter (alat)  =      13.9425  a.u.
     unit-cell volume          =   21209.0878 (a.u.)^3
     number of atoms/cell      =          100
     number of atomic types    =            1
     number of electrons       =      1100.00
     number of Kohn-Sham states=          660
     kinetic-energy cutoff     =      80.0000  Ry
     charge density cutoff     =     320.0000  Ry
     convergence threshold     =      1.0E-10
     mixing beta               =       0.7000
     number of iterations used =            8  local-TF  mixing
     Exchange-correlation      =  SLA  PW   PBE  PBE ( 1  4  3  4 0 0)

     celldm(1)=  13.942539  celldm(2)=   0.000000  celldm(3)=   0.000000
     celldm(4)=   0.000000  celldm(5)=   0.000000  celldm(6)=   0.000000

     crystal axes: (cart. coord. in units of alat)
               a(1) = (   1.000000   0.000000   0.000000 )
               a(2) = (   0.000000   2.309401   0.000000 )
               a(3) = (   0.000000   0.000000   3.388418 )

     reciprocal axes: (cart. coord. in units 2 pi/alat)
               b(1) = (  1.000000  0.000000  0.000000 )
               b(2) = (  0.000000  0.433013  0.000000 )
               b(3) = (  0.000000  0.000000  0.295123 )

     PseudoPot. # 1 for Cu read from file:
     /home/549/hxw549/Short/pseudopotentials/Cu.pbe-n-van_ak.UPF
     MD5 check sum: 601f7c30f7467666bec936e0661ce3e1
     Pseudo is Ultrasoft + core correction, Zval = 11.0
     Generated by new atomic code, or converted to UPF format
     Using radial grid of  867 points,  6 beta functions with:
                l(1) =   0
                l(2) =   0
                l(3) =   1
                l(4) =   1
                l(5) =   2
                l(6) =   2
     Q(r) pseudized with  8 coefficients,  rinner =    1.400   1.400   1.400
                                                       1.400   1.400

     atomic species   valence    mass     pseudopotential
        Cu            11.00    63.54600     Cu( 1.00)

     No symmetry found

                                    s                        frac. trans.

      isym =  1     identity

 cryst.   s( 1) = (     1          0          0      )
                  (     0          1          0      )
                  (     0          0          1      )

 cart.    s( 1) = (  1.0000000  0.0000000  0.0000000 )
                  (  0.0000000  1.0000000  0.0000000 )
                  (  0.0000000  0.0000000  1.0000000 )

   Cartesian axes

     site n.     atom                  positions (alat units)
         1           Cu  tau(   1) = (   0.0000000   0.0009664  24.9279861  )
         2           Cu  tau(   2) = (   1.8444643   3.9355850  24.9323654  )
         3           Cu  tau(   3) = (   3.6890370   0.0005327  24.9287248  )
         4           Cu  tau(   4) = (   5.5336097   3.9355850  24.9323654  )
         5           Cu  tau(   5) = (   0.0000000   7.8693236  24.9335617  )
         6           Cu  tau(   6) = (   1.8444007  11.8040622  24.9297838  )
         7           Cu  tau(   7) = (   3.6890370   7.8698089  24.9327975  )
         8           Cu  tau(   8) = (   5.5336732  11.8040622  24.9297838  )
         9           Cu  tau(   9) = (   0.0000000  15.7397485  24.9265531  )
        10           Cu  tau(  10) = (   1.8446342  19.6755708  24.9284337  )
        11           Cu  tau(  11) = (   3.6890370  15.7396340  24.9268171  )
        12           Cu  tau(  12) = (   5.5334398  19.6755708  24.9284337  )
        13           Cu  tau(  13) = (   0.0000000  23.6100895  24.9320761  )
        14           Cu  tau(  14) = (   1.8445397  27.5444868  24.9331042  )
        15           Cu  tau(  15) = (   3.6890370  23.6108718  24.9325113  )
        16           Cu  tau(  16) = (   5.5335343  27.5444868  24.9331042  )
        17           Cu  tau(  17) = (   0.0000000  31.4793266  24.9299226  )
        18           Cu  tau(  18) = (   1.8445500  35.4145992  24.9268625  )
        19           Cu  tau(  19) = (   3.6890370  31.4785726  24.9294315  )
        20           Cu  tau(  20) = (   5.5335239  35.4145992  24.9268625  )
        21           Cu  tau(  21) = (   0.0000000   3.9326956  31.1441085  )
        22           Cu  tau(  22) = (   1.8444389  -0.0017203  31.1394100  )
        23           Cu  tau(  23) = (   3.6890370   3.9341839  31.1418655  )
        24           Cu  tau(  24) = (   5.5336351  -0.0017203  31.1394100  )
        25           Cu  tau(  25) = (   0.0000000  11.8076149  31.1410162  )
        26           Cu  tau(  26) = (   1.8444253   7.8707825  31.1436474  )
        27           Cu  tau(  27) = (   3.6890370  11.8062961  31.1401855  )
        28           Cu  tau(  28) = (   5.5336486   7.8707825  31.1436474  )
        29           Cu  tau(  29) = (   0.0000000  19.6733936  31.1391894  )
        30           Cu  tau(  30) = (   1.8445042  15.7403082  31.1378714  )
        31           Cu  tau(  31) = (   3.6890370  19.6727466  31.1394992  )
        32           Cu  tau(  32) = (   5.5335698  15.7403082  31.1378714  )
        33           Cu  tau(  33) = (   0.0000000  27.5451875  31.1422752  )
        34           Cu  tau(  34) = (   1.8446371  23.6082781  31.1428338  )
        35           Cu  tau(  35) = (   3.6890370  27.5460838  31.1450477  )
        36           Cu  tau(  36) = (   5.5334369  23.6082781  31.1428338  )
        37           Cu  tau(  37) = (   0.0000000  35.4154077  31.1379038  )
        38           Cu  tau(  38) = (   1.8446371  31.4817904  31.1405250  )
        39           Cu  tau(  39) = (   3.6890370  35.4150033  31.1378803  )
        40           Cu  tau(  40) = (   5.5334369  31.4817904  31.1405250  )
        41           Cu  tau(  41) = (   0.0000000  -0.0054219  37.3857613  )
        42           Cu  tau(  42) = (   1.8446839   3.9311991  37.3791950  )
        43           Cu  tau(  43) = (   3.6890370  -0.0035086  37.3819366  )
        44           Cu  tau(  44) = (   5.5333901   3.9311991  37.3791950  )
        45           Cu  tau(  45) = (   0.0000000   7.8724197  37.3764282  )
        46           Cu  tau(  46) = (   1.8447689  11.8100672  37.3820183  )
        47           Cu  tau(  47) = (   3.6890370   7.8718087  37.3803605  )
        48           Cu  tau(  48) = (   5.5333051  11.8100672  37.3820183  )
        49           Cu  tau(  49) = (   0.0000000  15.7419246  37.3863596  )
        50           Cu  tau(  50) = (   1.8443032  19.6703043  37.3834354  )
        51           Cu  tau(  51) = (   3.6890370  15.7399399  37.3851806  )
        52           Cu  tau(  52) = (   5.5337708  19.6703043  37.3834354  )
        53           Cu  tau(  53) = (   0.0000000  23.6065083  37.3801653  )
        54           Cu  tau(  54) = (   1.8444158  27.5468707  37.3782461  )
        55           Cu  tau(  55) = (   3.6890370  23.6053282  37.3783660  )
        56           Cu  tau(  56) = (   5.5336582  27.5468707  37.3782461  )
        57           Cu  tau(  57) = (   0.0000000  31.4840582  37.3807691  )
        58           Cu  tau(  58) = (   1.8444670  35.4158525  37.3852248  )
        59           Cu  tau(  59) = (   3.6890370  31.4858371  37.3837574  )
        60           Cu  tau(  60) = (   5.5336070  35.4158525  37.3852248  )
[...]
        86           Cu  tau(  86) = (   1.8507465  11.7932384  49.7757044  )
        87           Cu  tau(  87) = (   3.6890370   7.8601486  49.7833958  )
        88           Cu  tau(  88) = (   5.5273275  11.7932384  49.7757044  )
        89           Cu  tau(  89) = (   0.0000000  15.7179014  49.7897957  )
        90           Cu  tau(  90) = (   1.8380808  19.6849423  49.7816049  )
        91           Cu  tau(  91) = (   3.6890370  15.7571897  49.8014356  )
        92           Cu  tau(  92) = (   5.5399932  19.6849423  49.7816049  )
        93           Cu  tau(  93) = (   0.0000000  23.6260192  49.7907407  )
        94           Cu  tau(  94) = (   1.8441735  27.5398661  49.7576246  )
        95           Cu  tau(  95) = (   3.6890370  23.6126593  49.7545000  )
        96           Cu  tau(  96) = (   5.5339005  27.5398661  49.7576246  )
        97           Cu  tau(  97) = (   0.0000000  31.4680407  49.8080298  )
        98           Cu  tau(  98) = (   1.8427191  35.4123246  49.7878355  )
        99           Cu  tau(  99) = (   3.6890370  31.4671675  49.7596163  )
       100           Cu  tau( 100) = (   5.5353549  35.4123246  49.7878355  )

   Crystallographic axes

     site n.     atom                  positions (cryst. coord.)
         1           Cu  tau(   1) = (  0.0000000  0.0004185  7.3568210  )
         2           Cu  tau(   2) = (  1.8444643  1.7041583  7.3581135  )
         3           Cu  tau(   3) = (  3.6890370  0.0002306  7.3570390  )
         4           Cu  tau(   4) = (  5.5336097  1.7041583  7.3581135  )
         5           Cu  tau(   5) = (  0.0000000  3.4075171  7.3584665  )
         6           Cu  tau(   6) = (  1.8444007  5.1113089  7.3573516  )
         7           Cu  tau(   7) = (  3.6890370  3.4077272  7.3582410  )
         8           Cu  tau(   8) = (  5.5336732  5.1113089  7.3573516  )
         9           Cu  tau(   9) = (  0.0000000  6.8155110  7.3563981  )
        10           Cu  tau(  10) = (  1.8446342  8.5197721  7.3569531  )
        11           Cu  tau(  11) = (  3.6890370  6.8154615  7.3564760  )
        12           Cu  tau(  12) = (  5.5334398  8.5197721  7.3569531  )
        13           Cu  tau(  13) = (  0.0000000 10.2234687  7.3580281  )
        14           Cu  tau(  14) = (  1.8445397 11.9271127  7.3583315  )
        15           Cu  tau(  15) = (  3.6890370 10.2238074  7.3581565  )
        16           Cu  tau(  16) = (  5.5335343 11.9271127  7.3583315  )
        17           Cu  tau(  17) = (  0.0000000 13.6309482  7.3573925  )
        18           Cu  tau(  18) = (  1.8445500 15.3349713  7.3564894  )
        19           Cu  tau(  19) = (  3.6890370 13.6306218  7.3572476  )
        20           Cu  tau(  20) = (  5.5335239 15.3349713  7.3564894  )
        21           Cu  tau(  21) = (  0.0000000  1.7029071  9.1913415  )
        22           Cu  tau(  22) = (  1.8444389 -0.0007449  9.1899548  )
        23           Cu  tau(  23) = (  3.6890370  1.7035516  9.1906795  )
        24           Cu  tau(  24) = (  5.5336351 -0.0007449  9.1899548  )
        25           Cu  tau(  25) = (  0.0000000  5.1128472  9.1904288  )
        26           Cu  tau(  26) = (  1.8444253  3.4081488  9.1912054  )
        27           Cu  tau(  27) = (  3.6890370  5.1122762  9.1901837  )
        28           Cu  tau(  28) = (  5.5336486  3.4081488  9.1912054  )
        29           Cu  tau(  29) = (  0.0000000  8.5188293  9.1898897  )
        30           Cu  tau(  30) = (  1.8445042  6.8157534  9.1895007  )
[...]
     1.0000   1.0000   1.0000   1.0000   1.0000   1.0000   1.0000   1.0000
     1.0000   1.0000   1.0000   1.0000   1.0000   1.0000   1.0000   1.0000
     1.0000   1.0000   1.0000   1.0000   1.0000   1.0000   1.0000   1.0000
     1.0000   1.0000   1.0000   1.0000   1.0000   1.0000   1.0000   1.0000
     1.0000   1.0000   1.0000   1.0000   1.0000   1.0000   1.0000   1.0000
     1.0000   1.0000   1.0000   1.0000   1.0000   1.0000   1.0000   1.0000
     1.0000   1.0000   1.0000   1.0000   1.0000   1.0000   1.0000   1.0000
     1.0000   1.0000   1.0000   1.0000   1.0000   1.0000   1.0000   1.0000
     0.9999   0.9999   0.9999   0.9999   0.9999   0.9999   0.9999   0.9999
     0.9999   0.9999   0.9999   0.9999   0.9999   0.9999   0.9999   0.9999
     0.9999   0.9999   0.9999   0.9999   0.9999   0.9999   0.9999   0.9999
     0.9998   0.9998   0.9998   0.9998   0.9998   0.9998   0.9998   0.9998
     0.9998   0.9998   0.9998   0.9998   0.9997   0.9997   0.9997   0.9997
     0.9997   0.9997   0.9996   0.9996   0.9996   0.9996   0.9996   0.9996
     0.9996   0.9996   0.9995   0.9995   0.9995   0.9995   0.9995   0.9995
     0.9995   0.9995   0.9994   0.9994   0.9994   0.9994   0.9994   0.9994
     0.9994   0.9994   0.9993   0.9993   0.9993   0.9993   0.9993   0.9992
     0.9992   0.9992   0.9991   0.9991   0.9991   0.9991   0.9990   0.9990
     0.9990   0.9990   0.9990   0.9990   0.9990   0.9989   0.9989   0.9989
     0.9989   0.9989   0.9989   0.9988   0.9988   0.9988   0.9988   0.9987
     0.9987   0.9987   0.9986   0.9986   0.9985   0.9985   0.9984   0.9984
     0.9983   0.9983   0.9982   0.9981   0.9981   0.9981   0.9980   0.9980
     0.9980   0.9978   0.9977   0.9976   0.9975   0.9974   0.9974   0.9973
     0.9972   0.9971   0.9971   0.9970   0.9969   0.9968   0.9965   0.9964
     0.9963   0.9961   0.9960   0.9958   0.9957   0.9956   0.9955   0.9955
     0.9955   0.9955   0.9953   0.9953   0.9951   0.9950   0.9947   0.9946
     0.9943   0.9942   0.9941   0.9939   0.9938   0.9935   0.9934   0.9933
     0.9932   0.9931   0.9930   0.9928   0.9928   0.9928   0.9927   0.9927
     0.9925   0.9925   0.9924   0.9924   0.9922   0.9921   0.9921   0.9920
     0.9920   0.9918   0.9917   0.9916   0.9915   0.9914   0.9914   0.9913
     0.9912   0.9911   0.9911   0.9910   0.9909   0.9908   0.9905   0.9903
     0.9897   0.9894   0.9893   0.9892   0.9887   0.9885   0.9880   0.9880
     0.9877   0.9877   0.9876   0.9874   0.9873   0.9870   0.9869   0.9868
     0.9866   0.9866   0.9865   0.9863   0.9863   0.9862   0.9861   0.9860
     0.9860   0.9858   0.9857   0.9856   0.9854   0.9853   0.9852   0.9851
     0.9850   0.9850   0.9849   0.9847   0.9846   0.9844   0.9843   0.9842
     0.9840   0.9839   0.9839   0.9838   0.9837   0.9837   0.9836   0.9835
     0.9834   0.9832   0.9832   0.9831   0.9828   0.9828   0.9826   0.9825
     0.9824   0.9824   0.9821   0.9820   0.9818   0.9818   0.9817   0.9816
     0.9815   0.9814   0.9812   0.9812   0.9811   0.9810   0.9807   0.9807
     0.9805   0.9805   0.9804   0.9803   0.9802   0.9799   0.9797   0.9794
     0.9792   0.9791   0.9791   0.9783   0.9778   0.9774   0.9764   0.9761
     0.9759   0.9754   0.9749   0.9742   0.9740   0.9737   0.9734   0.9734
     0.9732   0.9729   0.9723   0.9718   0.9712   0.9710   0.9695   0.9688
     0.9682   0.9678   0.9678   0.9673   0.9673   0.9670   0.9668   0.9667
     0.9665   0.9659   0.9658   0.9656   0.9654   0.9651   0.9648   0.9643
[...]
     0.7560   0.7398   0.7352   0.7052   0.7015   0.6931   0.6863   0.6017
     0.5552   0.5373   0.5091   0.5007   0.4959   0.4737   0.4638   0.4573
     0.4521   0.4510   0.4161   0.4106   0.4081   0.4055   0.3913   0.3801
     0.3765   0.3697   0.3420   0.3294   0.3197   0.3183   0.2789   0.2773
     0.2631   0.2625   0.2380   0.2165   0.1705   0.1456   0.0988   0.0896
     0.0783   0.0746   0.0543   0.0469   0.0393   0.0351   0.0313   0.0285
     0.0232   0.0212   0.0209   0.0203   0.0162   0.0150   0.0081   0.0062
     0.0050   0.0030   0.0020   0.0015   0.0014   0.0013   0.0011   0.0011
     0.0010   0.0010   0.0009   0.0009   0.0008   0.0007   0.0006   0.0005
     0.0005   0.0004   0.0004   0.0004   0.0004   0.0004   0.0003   0.0002
     0.0002   0.0001   0.0001   0.0001   0.0001   0.0001   0.0000   0.0000
     0.0000   0.0000   0.0000   0.0000   0.0000   0.0000   0.0000   0.0000
     0.0000   0.0000   0.0000   0.0000   0.0000   0.0000   0.0000   0.0000
     0.0000   0.0000   0.0000   0.0000   0.0000   0.0000   0.0000   0.0000
     0.0000   0.0000   0.0000   0.0000

[...]

          k = 0.2500-0.2165 0.0000 (256316 PWs)   bands (ev):

[...]

          k =-0.5000 0.0000 0.0000 (256496 PWs)   bands (ev):

[...]

          k =-0.5000-0.2165 0.0000 (256328 PWs)   bands (ev):

    -5.7531  -5.6375  -5.6070  -5.5787  -5.4350  -5.3993  -5.2804  -5.2491
    -5.2448  -5.2351  -5.2312  -5.2179  -5.1883  -5.1492  -5.1113  -5.1073
    -5.0822  -5.0720  -5.0303  -5.0204  -5.0075  -4.9821  -4.9567  -4.9235
    -4.9022  -4.8748  -4.8587  -4.7704  -4.7307  -4.6648  -4.6442  -4.6246
    -4.6162  -4.6079  -4.5955  -4.5502  -4.5406  -4.5198  -4.5067  -4.4776
    -4.4393  -4.4265  -4.3371  -4.2406  -4.1806  -4.1404  -4.1192  -4.0575
    -4.0454  -4.0364  -4.0009  -3.9853  -3.9432  -3.9180  -3.9101  -3.8986
    -3.8841  -3.8801  -3.8657  -3.8529  -3.8520  -3.7896  -3.7865  -3.7788
    -3.7671  -3.7612  -3.7347  -3.7150  -3.7009  -3.6908  -3.6861  -3.6806
    -3.6577  -3.6479  -3.6323  -3.6320  -3.6096  -3.6075  -3.5435  -3.5164
    -3.4891  -3.4712  -3.4642  -3.4491  -3.3935  -3.3198  -3.2688  -3.2020
    -3.1238  -3.0734  -3.0639  -3.0252  -3.0233  -3.0002  -2.9501  -2.9331
    -2.8931  -2.8606  -2.8168  -2.8003  -2.7893  -2.7838  -2.7663  -2.7577
    -2.7520  -2.7459  -2.7410  -2.7195  -2.7095  -2.6910  -2.6854  -2.6794
    -2.6740  -2.6585  -2.6423  -2.6397  -2.6338  -2.6293  -2.6242  -2.6091
    -2.6082  -2.6006  -2.5953  -2.5792  -2.5592  -2.5398  -2.5277  -2.5114
    -2.4929  -2.4564  -2.4492  -2.4328  -2.3720  -2.3636  -2.3535  -2.3456
    -2.3370  -2.3142  -2.2991  -2.2831  -2.2681  -2.2466  -2.2437  -2.2249
    -2.1673  -2.1653  -2.1377  -2.1155  -2.1110  -2.1022  -2.0975  -2.0807
    -2.0704  -2.0584  -2.0571  -2.0515  -1.9967  -1.9810  -1.9779  -1.9746
    -1.9405  -1.9067  -1.8631  -1.8563  -1.8459  -1.8394  -1.8384  -1.8260
    -1.8235  -1.8084  -1.8071  -1.8021  -1.7909  -1.7747  -1.7360  -1.7142
    -1.6881  -1.6670  -1.6012  -1.5919  -1.5795  -1.5654  -1.5370  -1.5271
    -1.5164  -1.5119  -1.4985  -1.4937  -1.4784  -1.4632  -1.4470  -1.4402
    -1.4204  -1.4181  -1.4115  -1.4011  -1.3858  -1.3751  -1.3576  -1.3538
    -1.3376  -1.3276  -1.3195  -1.3172  -1.2968  -1.2835  -1.2780  -1.2586
    -1.2500  -1.2422  -1.2405  -1.2286  -1.2202  -1.2109  -1.1866  -1.1790
    -1.1644  -1.1485  -1.1432  -1.1320  -1.1273  -1.1135  -1.1078  -1.0980
    -1.0902  -1.0852  -1.0791  -1.0752  -1.0694  -1.0669  -1.0584  -1.0560
    -1.0556  -1.0494  -1.0431  -1.0418  -1.0328  -1.0253  -1.0247  -1.0129
    -1.0015  -1.0003  -0.9921  -0.9786  -0.9746  -0.9717  -0.9662  -0.9591
    -0.9563  -0.9474  -0.9407  -0.9284  -0.9251  -0.9190  -0.9128  -0.9048
    -0.8999  -0.8930  -0.8770  -0.8707  -0.8627  -0.8580  -0.8553  -0.8479
    -0.8456  -0.8436  -0.8372  -0.8347  -0.8279  -0.8254  -0.8123  -0.8083
    -0.7982  -0.7930  -0.7788  -0.7685  -0.7585  -0.7535  -0.7483  -0.7422
    -0.7332  -0.7180  -0.6985  -0.6787  -0.6687  -0.6612  -0.6491  -0.6268
    -0.6154  -0.6111  -0.5895  -0.5876  -0.5797  -0.5789  -0.5708  -0.5623
    -0.5599  -0.5515  -0.5399  -0.5351  -0.5302  -0.5163  -0.5007  -0.4904
    -0.4685  -0.4491  -0.4251  -0.4104  -0.4026  -0.3958  -0.3868  -0.3820
    -0.3779  -0.3768  -0.3576  -0.3543  -0.3436  -0.3377  -0.3265  -0.3214
    -0.3118  -0.3104  -0.2996  -0.2956  -0.2891  -0.2753  -0.2706  -0.2661
    -0.2647  -0.2612  -0.2512  -0.2473  -0.2437  -0.2387  -0.2374  -0.2316
    -0.2292  -0.2199  -0.2171  -0.2150  -0.2126  -0.2110  -0.2085  -0.2039
    -0.2003  -0.1989  -0.1952  -0.1920  -0.1837  -0.1748  -0.1711  -0.1641
    -0.1627  -0.1561  -0.1521  -0.1446  -0.1412  -0.1362  -0.1265  -0.1223
    -0.1138  -0.1064  -0.1040  -0.0970  -0.0940  -0.0904  -0.0892  -0.0882
    -0.0808  -0.0747  -0.0717  -0.0659  -0.0601  -0.0577  -0.0487  -0.0463
    -0.0400  -0.0348  -0.0325  -0.0225  -0.0197  -0.0168  -0.0154  -0.0085
    -0.0056  -0.0014   0.0004   0.0063   0.0089   0.0114   0.0130   0.0164
     0.0197   0.0210   0.0226   0.0246   0.0290   0.0316   0.0364   0.0381
     0.0395   0.0420   0.0456   0.0463   0.0486   0.0521   0.0540   0.0565
     0.0575   0.0602   0.0624   0.0645   0.0664   0.0668   0.0720   0.0725
     0.0752   0.0766   0.0829   0.0870   0.0931   0.0947   0.0974   0.1001
     0.1006   0.1051   0.1077   0.1088   0.1141   0.1194   0.1228   0.1266
     0.1289   0.1345   0.1391   0.1398   0.1518   0.1545   0.1566   0.1641
     0.1799   0.1859   0.1882   0.1949   0.1991   0.2062   0.2094   0.2124
     0.2168   0.2193   0.2237   0.2269   0.2295   0.2338   0.2388   0.2423
     0.2427   0.2447   0.2503   0.2599   0.2645   0.2744   0.2805   0.2824
     0.2894   0.2920   0.2956   0.3044   0.3086   0.3117   0.3169   0.3246
     0.3274   0.3304   0.3336   0.3372   0.3460   0.3495   0.3547   0.3551
[...]
     1.1417   1.1520   1.1733   1.1758   1.1864   1.2084   1.8469   1.9360
     2.3933   2.4043   2.4452   2.4677   2.5810   2.6178   2.7160   2.7554
     2.8116   2.8400   2.8676   2.9772   2.9881   3.0129   3.0553   3.0718
     3.1016   3.1272   3.2170   3.3444   3.5240   3.6042   3.6522   3.7619
     3.9420   3.9717   4.0071   4.0299   4.0810   4.0979   4.1003   4.1276
     4.1413   4.1654   4.2399   4.2971   4.3385   4.4125   4.4620   4.4854
     4.5102   4.5535   4.5614   4.5737   4.6777   4.7048   4.7191   4.7455
     4.8059   4.8078   4.8917   4.9112   4.9331   4.9596   4.9771   5.0407
     5.0596   5.1349   5.1592   5.1631   5.1876   5.2447   5.2908   5.3202
     5.3548   5.3861   5.4191   5.4551   5.4657   5.5143   5.5620   5.6630
     5.7044   5.7322   5.7390   5.7488   5.8010   5.8696   5.9010   5.9119
     5.9483   5.9913   6.0053   6.0080   6.0196   6.0638   6.0658   6.0709
     6.0996   6.1136   6.1579   6.1694   6.1879   6.2230   6.2618   6.2839
     6.2967   6.3137   6.3429   6.3500   6.3916   6.4004   6.4053   6.4267
     6.4347   6.4594   6.4776   6.4890

     occupation numbers
     1.0000   1.0000   1.0000   1.0000   1.0000   1.0000   1.0000   1.0000
     1.0000   1.0000   1.0000   1.0000   1.0000   1.0000   1.0000   1.0000
     1.0000   1.0000   1.0000   1.0000   1.0000   1.0000   1.0000   1.0000
     1.0000   1.0000   1.0000   1.0000   1.0000   1.0000   1.0000   1.0000
     1.0000   1.0000   1.0000   1.0000   1.0000   1.0000   1.0000   1.0000
     1.0000   1.0000   1.0000   1.0000   1.0000   1.0000   1.0000   1.0000
     1.0000   1.0000   1.0000   1.0000   1.0000   1.0000   1.0000   1.0000
     1.0000   1.0000   1.0000   1.0000   1.0000   1.0000   1.0000   1.0000
     1.0000   1.0000   1.0000   1.0000   1.0000   1.0000   1.0000   1.0000
     1.0000   1.0000   1.0000   1.0000   1.0000   1.0000   1.0000   1.0000
     1.0000   1.0000   1.0000   1.0000   1.0000   1.0000   1.0000   1.0000
     1.0000   1.0000   1.0000   1.0000   1.0000   1.0000   1.0000   1.0000
     1.0000   1.0000   1.0000   1.0000   1.0000   1.0000   1.0000   1.0000
     1.0000   1.0000   1.0000   1.0000   1.0000   1.0000   1.0000   1.0000
     1.0000   1.0000   1.0000   1.0000   1.0000   1.0000   1.0000   1.0000
     1.0000   1.0000   1.0000   1.0000   1.0000   1.0000   1.0000   1.0000
     1.0000   1.0000   1.0000   1.0000   1.0000   1.0000   1.0000   1.0000
     1.0000   1.0000   1.0000   1.0000   1.0000   1.0000   1.0000   1.0000
     1.0000   1.0000   1.0000   1.0000   1.0000   1.0000   1.0000   1.0000
     1.0000   1.0000   1.0000   1.0000   1.0000   1.0000   1.0000   1.0000
     1.0000   1.0000   1.0000   1.0000   1.0000   1.0000   1.0000   1.0000
     1.0000   1.0000   1.0000   1.0000   1.0000   1.0000   1.0000   1.0000
     1.0000   1.0000   0.9999   0.9999   0.9999   0.9999   0.9999   0.9999
     0.9999   0.9999   0.9999   0.9999   0.9999   0.9999   0.9999   0.9999
     0.9999   0.9999   0.9999   0.9999   0.9999   0.9999   0.9998   0.9998
     0.9998   0.9998   0.9998   0.9998   0.9998   0.9998   0.9998   0.9998
     0.9998   0.9998   0.9998   0.9997   0.9997   0.9997   0.9997   0.9997
     0.9997   0.9997   0.9996   0.9996   0.9996   0.9996   0.9996   0.9996
     0.9996   0.9996   0.9995   0.9995   0.9995   0.9995   0.9995   0.9995
     0.9995   0.9995   0.9995   0.9995   0.9995   0.9994   0.9994   0.9994
     0.9994   0.9994   0.9994   0.9993   0.9993   0.9993   0.9993   0.9993
     0.9993   0.9993   0.9992   0.9992   0.9992   0.9992   0.9992   0.9991
     0.9991   0.9991   0.9991   0.9990   0.9990   0.9990   0.9990   0.9990
     0.9989   0.9989   0.9989   0.9989   0.9989   0.9989   0.9988   0.9988
     0.9988   0.9987   0.9987   0.9986   0.9986   0.9986   0.9985   0.9985
     0.9985   0.9984   0.9983   0.9981   0.9981   0.9980   0.9980   0.9978
     0.9977   0.9977   0.9975   0.9975   0.9974   0.9974   0.9974   0.9973
     0.9973   0.9972   0.9971   0.9970   0.9970   0.9969   0.9967   0.9966
     0.9964   0.9961   0.9958   0.9956   0.9955   0.9954   0.9953   0.9952
     0.9952   0.9952   0.9949   0.9948   0.9947   0.9946   0.9944   0.9943
     0.9941   0.9941   0.9939   0.9938   0.9937   0.9935   0.9934   0.9933
     0.9933   0.9932   0.9930   0.9929   0.9928   0.9927   0.9927   0.9926
     0.9925   0.9923   0.9923   0.9922   0.9922   0.9921   0.9921   0.9920
     0.9919   0.9919   0.9918   0.9917   0.9915   0.9913   0.9912   0.9910
     0.9910   0.9908   0.9907   0.9905   0.9904   0.9903   0.9900   0.9899
     0.9897   0.9895   0.9894   0.9892   0.9891   0.9890   0.9890   0.9889
     0.9887   0.9885   0.9884   0.9882   0.9880   0.9880   0.9877   0.9876
     0.9874   0.9872   0.9871   0.9868   0.9867   0.9866   0.9865   0.9863
     0.9862   0.9860   0.9859   0.9857   0.9856   0.9855   0.9855   0.9853
     0.9852   0.9852   0.9851   0.9850   0.9848   0.9847   0.9845   0.9845
     0.9844   0.9843   0.9842   0.9841   0.9840   0.9839   0.9838   0.9837
     0.9837   0.9836   0.9835   0.9834   0.9833   0.9833   0.9830   0.9830
     0.9829   0.9828   0.9826   0.9824   0.9821   0.9820   0.9819   0.9818
     0.9818   0.9815   0.9814   0.9814   0.9811   0.9809   0.9807   0.9805
     0.9804   0.9801   0.9799   0.9799   0.9792   0.9791   0.9790   0.9786
     0.9777   0.9774   0.9773   0.9769   0.9767   0.9762   0.9761   0.9759
     0.9756   0.9755   0.9752   0.9750   0.9749   0.9746   0.9743   0.9741
     0.9740   0.9739   0.9736   0.9729   0.9726   0.9720   0.9716   0.9714
     0.9710   0.9708   0.9705   0.9699   0.9696   0.9694   0.9690   0.9685
     0.9683   0.9680   0.9678   0.9675   0.9669   0.9666   0.9662   0.9661
[...]
     0.8436   0.8410   0.8356   0.8349   0.8322   0.8264   0.6089   0.5729
     0.3853   0.3809   0.3649   0.3561   0.3132   0.2998   0.2653   0.2521
     0.2338   0.2248   0.2164   0.1845   0.1815   0.1747   0.1636   0.1594
     0.1520   0.1458   0.1255   0.1002   0.0712   0.0605   0.0548   0.0433
     0.0286   0.0267   0.0245   0.0231   0.0204   0.0195   0.0194   0.0181
     0.0175   0.0164   0.0135   0.0116   0.0103   0.0084   0.0073   0.0068
     0.0064   0.0056   0.0055   0.0053   0.0038   0.0035   0.0034   0.0031
     0.0026   0.0025   0.0019   0.0018   0.0017   0.0015   0.0015   0.0012
     0.0011   0.0008   0.0008   0.0008   0.0007   0.0006   0.0005   0.0004
     0.0004   0.0003   0.0003   0.0003   0.0002   0.0002   0.0002   0.0001
     0.0001   0.0001   0.0001   0.0001   0.0001   0.0000   0.0000   0.0000
     0.0000   0.0000   0.0000   0.0000   0.0000   0.0000   0.0000   0.0000
     0.0000   0.0000   0.0000   0.0000   0.0000   0.0000   0.0000   0.0000
     0.0000   0.0000   0.0000   0.0000   0.0000   0.0000   0.0000   0.0000
     0.0000   0.0000   0.0000   0.0000

     the Fermi energy is     2.1128 ev

!    total energy              =  -12130.51451730 Ry
     Harris-Foulkes estimate   =  -12130.51451730 Ry
     estimated scf accuracy    <          3.8E-11 Ry

     The total energy is the sum of the following terms:

     one-electron contribution =  -20940.32636100 Ry
     hartree contribution      =   11714.63319125 Ry
     xc contribution           =   -4287.62355827 Ry
     ewald contribution        =    1388.05714027 Ry
     Dispersion Correction     =      -1.23106399 Ry
     smearing contrib. (-TS)   =      -4.02386555 Ry

     convergence has been achieved in  26 iterations

     Writing output data file copper.save

     General routines

     Parallel routines

   This run was terminated on:  18:18:27   7Apr2017

   JOB DONE.