     Program PWSCF v.5.4.0 starts on 12May2017 at 10:20: 5

     Current dimensions of program PWSCF are:
     Max number of different atomic species (ntypx) = 10
     Max number of k-points (npk) =  40000
     Max angular momentum in pseudopotentials (lmaxx) =  3

     Parameters for Dispersion Correction:
       atom      VdW radius       C_6

        Cu         2.952        374.666
        C_h        2.744         60.710
        C          2.744         60.710
        H          1.892          4.857

     bravais-lattice index     =            0
     lattice parameter (alat)  =      13.9425  a.u.
     unit-cell volume          =   21209.0878 (a.u.)^3
     number of atoms/cell      =          149
     number of atomic types    =            4
     number of electrons       =      1293.00
     number of Kohn-Sham states=          776
     kinetic-energy cutoff     =      80.0000  Ry
     charge density cutoff     =     320.0000  Ry
     convergence threshold     =      1.0E-08
     mixing beta               =       0.7000
     number of iterations used =            8  local-TF  mixing
     Exchange-correlation      =  SLA  PW   PBE  PBE ( 1  4  3  4 0 0)

     celldm(1)=  13.942539  celldm(2)=   0.000000  celldm(3)=   0.000000
     celldm(4)=   0.000000  celldm(5)=   0.000000  celldm(6)=   0.000000

     crystal axes: (cart. coord. in units of alat)
               a(1) = (   1.000000   0.000000   0.000000 )
               a(2) = (   0.000000   2.309401   0.000000 )
               a(3) = (   0.000000   0.000000   3.388418 )

     reciprocal axes: (cart. coord. in units 2 pi/alat)
               b(1) = (  1.000000  0.000000  0.000000 )
               b(2) = (  0.000000  0.433013  0.000000 )
               b(3) = (  0.000000  0.000000  0.295123 )

     PseudoPot. # 1 for Cu read from file:
     /home/549/hxw549/Short/pseudopotentials/Cu.pbe-n-van_ak.UPF
     MD5 check sum: 601f7c30f7467666bec936e0661ce3e1
     Pseudo is Ultrasoft + core correction, Zval = 11.0
     Generated by new atomic code, or converted to UPF format
     Using radial grid of  867 points,  6 beta functions with:
                l(1) =   0
                l(2) =   0
                l(3) =   1
                l(4) =   1
                l(5) =   2
                l(6) =   2
     Q(r) pseudized with  8 coefficients,  rinner =    1.400   1.400   1.400
                                                       1.400   1.400

     PseudoPot. # 2 for C  read from file:
     /home/549/hxw549/Short/pseudopotentials/C.star1s-pbe-mt_gipaw.UPF
     MD5 check sum: ef0cb3dee31bd9e4ba2a832a2c716264
     Pseudo is Norm-conserving, Zval =  5.0
     Generated by new atomic code, or converted to UPF format
     Using radial grid of 1073 points,  1 beta functions with:
                l(1) =   0

     PseudoPot. # 3 for C  read from file:
     /home/549/hxw549/Short/pseudopotentials/C.pbe-mt_gipaw.UPF
     MD5 check sum: 5ac2f21f2c440b14befe521540822c15
     Pseudo is Norm-conserving, Zval =  4.0
     Generated by new atomic code, or converted to UPF format
     Using radial grid of 1073 points,  1 beta functions with:
                l(1) =   0

     PseudoPot. # 4 for H  read from file:
     /home/549/hxw549/Short/pseudopotentials/H.pbe-van_ak.UPF
     MD5 check sum: 077eb6d537518a38cb46c6de387227b7
     Pseudo is Ultrasoft, Zval =  1.0
     Generated by new atomic code, or converted to UPF format
     Using radial grid of  615 points,  1 beta functions with:
                l(1) =   0
     Q(r) pseudized with  8 coefficients,  rinner =    0.800

     atomic species   valence    mass     pseudopotential
        Cu            11.00    63.54600     Cu( 1.00)
        C_h            5.00    12.01070     C ( 1.00)
        C              4.00    12.01070     C ( 1.00)
        H              1.00     1.00783     H ( 1.00)

     No symmetry found

   Cartesian axes

     site n.     atom                  positions (alat units)
         1           Cu  tau(   1) = (   0.0001062  -0.0002701   0.9985021  )
         2           Cu  tau(   2) = (   0.2500787   0.2310134   0.9985351  )
         3           Cu  tau(   3) = (   0.5001031  -0.0002030   0.9984957  )
         4           Cu  tau(   4) = (   0.7501278   0.2310331   0.9985380  )
         5           Cu  tau(   5) = (   0.0000980   0.4619866   0.9984814  )
         6           Cu  tau(   6) = (   0.2501083   0.6927319   0.9981769  )
         7           Cu  tau(   7) = (   0.5001095   0.4619569   0.9984100  )
         8           Cu  tau(   8) = (   0.7501047   0.6927365   0.9981595  )
         9           Cu  tau(   9) = (   0.0001111   0.9234701   0.9979600  )
        10           Cu  tau(  10) = (   0.2501267   1.1541690   0.9980943  )
        11           Cu  tau(  11) = (   0.5001118   0.9234548   0.9979528  )
        12           Cu  tau(  12) = (   0.7501036   1.1541603   0.9980828  )
        13           Cu  tau(  13) = (   0.0001161   1.3847735   0.9984261  )
        14           Cu  tau(  14) = (   0.2501209   1.6154338   0.9987173  )
        15           Cu  tau(  15) = (   0.5001193   1.3847925   0.9985012  )
        16           Cu  tau(  16) = (   0.7501117   1.6154180   0.9987198  )
        17           Cu  tau(  17) = (   0.0001077   1.8463630   0.9986692  )
        18           Cu  tau(  18) = (   0.2501164   2.0776756   0.9985055  )
        19           Cu  tau(  19) = (   0.5001155   1.8463207   0.9986800  )
        20           Cu  tau(  20) = (   0.7500984   2.0776748   0.9985316  )
        21           Cu  tau(  21) = (   0.0001142   0.2310039   1.2467663  )
        22           Cu  tau(  22) = (   0.2501082  -0.0003075   1.2464524  )
        23           Cu  tau(  23) = (   0.5001128   0.2310801   1.2467556  )
        24           Cu  tau(  24) = (   0.7501188  -0.0003027   1.2464412  )
        25           Cu  tau(  25) = (   0.0001174   0.6930674   1.2468122  )
        26           Cu  tau(  26) = (   0.2501222   0.4621895   1.2468825  )
        27           Cu  tau(  27) = (   0.5001258   0.6930014   1.2467758  )
        28           Cu  tau(  28) = (   0.7501104   0.4622021   1.2469065  )
        29           Cu  tau(  29) = (   0.0001284   1.1538705   1.2468417  )
        30           Cu  tau(  30) = (   0.2501381   0.9235067   1.2466962  )
        31           Cu  tau(  31) = (   0.5001386   1.1538127   1.2468886  )
        32           Cu  tau(  32) = (   0.7501164   0.9235074   1.2467107  )
        33           Cu  tau(  33) = (   0.0001378   1.6152162   1.2472012  )
        34           Cu  tau(  34) = (   0.2501478   1.3843762   1.2471956  )
        35           Cu  tau(  35) = (   0.5001388   1.6152561   1.2473273  )
        36           Cu  tau(  36) = (   0.7501281   1.3843636   1.2472131  )
        37           Cu  tau(  37) = (   0.0001187   2.0777131   1.2464476  )
        38           Cu  tau(  38) = (   0.2501285   1.8464123   1.2468533  )
        39           Cu  tau(  39) = (   0.5001218   2.0777351   1.2463692  )
        40           Cu  tau(  40) = (   0.7501305   1.8464055   1.2468590  )
        41           Cu  tau(  41) = (   0.0001398  -0.0005976   1.4956460  )
        42           Cu  tau(  42) = (   0.2501884   0.2308765   1.4958148  )
        43           Cu  tau(  43) = (   0.5001240  -0.0005707   1.4955169  )
        44           Cu  tau(  44) = (   0.7500756   0.2308766   1.4958139  )
        45           Cu  tau(  45) = (   0.0001366   0.4623698   1.4961838  )
        46           Cu  tau(  46) = (   0.2501764   0.6932994   1.4967045  )
        47           Cu  tau(  47) = (   0.5001356   0.4624606   1.4964121  )
        48           Cu  tau(  48) = (   0.7501124   0.6933120   1.4967337  )
        49           Cu  tau(  49) = (   0.0001553   0.9235898   1.4970496  )
        50           Cu  tau(  50) = (   0.2501228   1.1534113   1.4971363  )
        51           Cu  tau(  51) = (   0.5001412   0.9233830   1.4970945  )
        52           Cu  tau(  52) = (   0.7501941   1.1533954   1.4971565  )
        53           Cu  tau(  53) = (   0.0001622   1.3839302   1.4970342  )
        54           Cu  tau(  54) = (   0.2501526   1.6151711   1.4965927  )
        55           Cu  tau(  55) = (   0.5001668   1.3837547   1.4970188  )
        56           Cu  tau(  56) = (   0.7501879   1.6151672   1.4966010  )
        57           Cu  tau(  57) = (   0.0001650   1.8465727   1.4960685  )
        58           Cu  tau(  58) = (   0.2500999   2.0778210   1.4957140  )
        59           Cu  tau(  59) = (   0.5001584   1.8468456   1.4960878  )
        60           Cu  tau(  60) = (   0.7501879   2.0778198   1.4957306  )
[...]
       117           C   tau( 117) = (   0.3330081   0.6754849   2.3837621  )
       118           C   tau( 118) = (   0.3308756   0.8659615   2.3913750  )
       119           C   tau( 119) = (   0.5003706   0.5786899   2.3870649  )
       120           C   tau( 120) = (   0.5002405   0.9634325   2.4431809  )
       121           H   tau( 121) = (   0.4995975   0.9609870   2.5959454  )
       122           C   tau( 122) = (   0.6677086   0.6755115   2.3842438  )
       123           C   tau( 123) = (   0.6697853   0.8659772   2.3921054  )
       124           C   tau( 124) = (   0.8341199   0.5783477   2.3792482  )
       125           C   tau( 125) = (   0.8333105   0.9630290   2.3849179  )
       126           C   tau( 126) = (   0.0004020   1.2520724   2.3870267  )
       127           C   tau( 127) = (   0.0004025   1.4451755   2.3815712  )
       128           C   tau( 128) = (   0.1670681   1.1564086   2.3893699  )
       129           C   tau( 129) = (   0.1671401   1.5416071   2.3811226  )
       130           C   tau( 130) = (   0.3345797   1.2533025   2.3895913  )
       131           C   tau( 131) = (   0.3339906   1.4459872   2.3843272  )
       132           C_h tau( 132) = (   0.5004360   1.1601743   2.3973219  )
       133           C   tau( 133) = (   0.5004344   1.5419259   2.3857438  )
       134           C   tau( 134) = (   0.6662994   1.2533218   2.3900622  )
       135           C   tau( 135) = (   0.6669051   1.4459974   2.3848351  )
       136           C   tau( 136) = (   0.8337342   1.1564012   2.3899329  )
       137           C   tau( 137) = (   0.8336802   1.5416439   2.3815460  )
       138           C   tau( 138) = (   0.0003242   1.8304356   2.3806540  )
       139           C   tau( 139) = (   0.0002579   2.0228029   2.3850643  )
       140           C   tau( 140) = (   0.1671501   1.7340969   2.3815095  )
       141           C   tau( 141) = (   0.1668791   2.1188753   2.3858106  )
       142           C   tau( 142) = (   0.3336897   1.8302293   2.3846875  )
       143           C   tau( 143) = (   0.3336549   2.0226017   2.3851744  )
       144           C   tau( 144) = (   0.5003773   1.7343588   2.3854412  )
       145           C   tau( 145) = (   0.5002558   2.1186784   2.3861815  )
       146           C   tau( 146) = (   0.6669817   1.8302723   2.3850179  )
       147           C   tau( 147) = (   0.6668813   2.0226289   2.3856046  )
       148           C   tau( 148) = (   0.8335225   1.7341201   2.3817501  )
       149           C   tau( 149) = (   0.8336415   2.1188792   2.3862952  )

     number of k points=     6  gaussian smearing, width (Ry)=  0.1000
                       cart. coord. in units 2pi/alat
        k(    1) = (   0.0000000   0.0000000   0.0000000), wk =   0.2500000
        k(    2) = (   0.0000000  -0.2165064   0.0000000), wk =   0.2500000
        k(    3) = (   0.2500000   0.0000000   0.0000000), wk =   0.5000000
        k(    4) = (   0.2500000  -0.2165064   0.0000000), wk =   0.5000000
        k(    5) = (  -0.5000000   0.0000000   0.0000000), wk =   0.2500000
        k(    6) = (  -0.5000000  -0.2165064   0.0000000), wk =   0.2500000

     Largest allocated arrays     est. size (Mb)     dimensions
     Largest temporary arrays     est. size (Mb)     dimensions

     Initial potential from superposition of free atoms
     Check: negative starting charge=   -0.001824

     starting charge 1267.81750, renormalised to 1293.00000

     negative rho (up, down):  1.861E-03 0.000E+00
     Starting wfc are 1285 randomized atomic wfcs

     Self-consistent Calculation

     iteration #  1     ecut=    80.00 Ry     beta=0.70
     Davidson diagonalization with overlap
     c_bands:  2 eigenvalues not converged
     c_bands:  4 eigenvalues not converged
     c_bands:  2 eigenvalues not converged
     ethr =  1.00E-04,  avg # of iterations = 37.8

     negative rho (up, down):  2.539E+01 0.000E+00

     total energy              =   -9651.40470437 Ry
     Harris-Foulkes estimate   =  -17300.43268562 Ry
     estimated scf accuracy    <  179571.19303010 Ry

     iteration #  2     ecut=    80.00 Ry     beta=0.70
     Davidson diagonalization with overlap
     ethr =  1.00E-02,  avg # of iterations = 11.7

[...]

     iteration # 35     ecut=    80.00 Ry     beta=0.70
     Davidson diagonalization with overlap
     c_bands:  2 eigenvalues not converged
     ethr =  2.58E-07,  avg # of iterations = 12.2

[...]

     total energy              =  -12708.27620324 Ry
     Harris-Foulkes estimate   =  -12708.27620325 Ry
     estimated scf accuracy    <       0.00000002 Ry

     iteration # 45     ecut=    80.00 Ry     beta=0.70
     Davidson diagonalization with overlap
     ethr =  1.34E-12,  avg # of iterations =  3.0

     negative rho (up, down):  2.096E-03 0.000E+00

     End of self-consistent calculation

          k = 0.0000 0.0000 0.0000 (256287 PWs)   bands (ev):

   -17.0289 -16.2021 -16.0484 -15.3381 -14.9869 -14.7030 -14.5705 -14.2242
   -14.1542 -14.0963 -14.0896 -13.3985 -13.2571 -13.1164 -13.0806 -13.0358
   -13.0252 -11.6194 -11.4661 -11.4395 -11.3338 -11.1680 -10.2419  -9.6907
    -9.6901  -9.6084  -9.4469  -8.8575  -8.7455  -8.6625  -8.5590  -7.8650
    -7.8426  -7.7394  -7.5939  -7.5441  -7.4905  -7.4861  -7.4742  -6.3101
    -6.2807  -6.0599  -6.0155  -5.9749  -5.9129  -5.8446  -5.8362  -5.7647
    -5.4868  -5.4618  -5.3978  -4.9638  -4.7693  -4.7405  -4.6859  -4.5661
    -4.4894  -4.4111  -4.2648  -4.1488  -3.9689  -3.9652  -3.8882  -3.8792
    -3.7002  -3.5076  -3.4976  -3.4649  -3.3853  -3.3819  -3.3804  -3.3653
    -3.3159  -3.1631  -3.1038  -3.0939  -2.9920  -2.9847  -2.9840  -2.9760
    -2.9656  -2.9082  -2.7838  -2.7807  -2.7740  -2.7146  -2.7075  -2.6894
    -2.6617  -2.6330  -2.5483  -2.3873  -2.3830  -2.3574  -2.3176  -2.3099
    -2.2082  -2.1691  -2.1665  -2.1393  -2.1288  -2.1274  -2.1273  -2.1272
    -2.1203  -2.1008  -2.0752  -1.9977  -1.9975  -1.9950  -1.9949  -1.9326
    -1.8880  -1.8567  -1.8155  -1.7522  -1.7147  -1.7145  -1.7124  -1.7094
    -1.6726  -1.6487  -1.6460  -1.6344  -1.6306  -1.5858  -1.5701  -1.5598
    -1.5388  -1.5379  -1.5327  -1.5277  -1.5122  -1.5061  -1.4995  -1.4909
    -1.4892  -1.4562  -1.4144  -1.4136  -1.3909  -1.3743  -1.3630  -1.3536
    -1.3484  -1.3280  -1.2950  -1.2741  -1.2388  -1.2374  -1.2315  -1.2196
    -1.1870  -1.1861  -1.1672  -1.1644  -1.1421  -1.1391  -1.1080  -1.1062
    -1.0928  -1.0835  -1.0258  -1.0230  -1.0137  -1.0071  -1.0034  -0.9977
    -0.9973  -0.9965  -0.9964  -0.9925  -0.9913  -0.9801  -0.9731  -0.9659
    -0.9270  -0.9180  -0.9173  -0.9140  -0.9003  -0.8941  -0.8936  -0.8913
    -0.8892  -0.8418  -0.8342  -0.8315  -0.8309  -0.8306  -0.8301  -0.8299
    -0.8273  -0.8269  -0.8239  -0.8237  -0.8231  -0.8231  -0.8192  -0.8175
    -0.8171  -0.8030  -0.8020  -0.7921  -0.7687  -0.7601  -0.6648  -0.6646
    -0.6588  -0.6583  -0.6354  -0.6339  -0.6167  -0.6166  -0.5957  -0.5944
    -0.5913  -0.5835  -0.5765  -0.5761  -0.5703  -0.5623  -0.5394  -0.5392
    -0.5359  -0.5353  -0.5287  -0.5280  -0.5171  -0.5163  -0.4674  -0.4670
    -0.4136  -0.4133  -0.4029  -0.4025  -0.4005  -0.3978  -0.3976  -0.3851
    -0.3828  -0.3800  -0.3789  -0.3786  -0.3762  -0.3750  -0.3748  -0.3599
    -0.3597  -0.3528  -0.3500  -0.3481  -0.3265  -0.3258  -0.2757  -0.2730
    -0.2710  -0.2657  -0.2655  -0.2610  -0.2405  -0.2403  -0.2375  -0.2372
    -0.2235  -0.2211  -0.2173  -0.2171  -0.2094  -0.1958  -0.1956  -0.1928
    -0.1918  -0.1897  -0.1889  -0.1868  -0.1854  -0.1835  -0.1825  -0.1655
    -0.1643  -0.1619  -0.1618  -0.1431  -0.1308  -0.0949  -0.0928  -0.0922
    -0.0917  -0.0894  -0.0456  -0.0442  -0.0430  -0.0420  -0.0383  -0.0372
    -0.0364  -0.0360  -0.0352  -0.0257  -0.0185  -0.0013   0.0075   0.0162
     0.0182   0.0205   0.0207   0.0254   0.0450   0.0452   0.0462   0.0503
     0.0519   0.0572   0.0712   0.0716   0.0718   0.0720   0.0753   0.0779
     0.0890   0.0892   0.0897   0.0899   0.0985   0.1001   0.1054   0.1064
     0.1271   0.1287   0.1607   0.1612   0.1847   0.1904   0.1921   0.2138
     0.2148   0.2222   0.2576   0.2590   0.2616   0.2675   0.2692   0.2709
     0.2925   0.2981   0.2981   0.3001   0.3002   0.3074   0.3080   0.3108
     0.3525   0.3667   0.3671   0.3702   0.3728   0.3758   0.3764   0.3993
     0.4035   0.4079   0.4089   0.4115   0.4143   0.4312   0.4432   0.4439
     0.4486   0.4552   0.4629   0.4655   0.4671   0.4761   0.5048   0.5088
     0.5193   0.5205   0.5231   0.5256   0.5261   0.5346   0.5514   0.5526
     0.5557   0.5599   0.5612   0.5615   0.5622   0.5657   0.5688   0.5703
     0.5743   0.5779   0.5806   0.5826   0.5840   0.5893   0.5907   0.6218
     0.6313   0.6318   0.6371   0.6466   0.6523   0.6730   0.6741   0.6751
     0.6779   0.6795   0.6798   0.6813   0.6856   0.6894   0.6904   0.7001
     0.7046   0.7056   0.7075   0.7079   0.7136   0.7137   0.7227   0.7258
     0.7353   0.7462   0.7464   0.7480   0.7518   0.7597   0.7605   0.7682
     0.7736   0.7746   0.7747   0.7756   0.7807   0.7812   0.7846   0.7937
     0.7938   0.8006   0.8316   0.8321   0.8430   0.8457   0.8485   0.8486
     0.8506   0.8515   0.8813   0.8823   0.8966   0.8969   0.9022   0.9024
     0.9164   0.9170   0.9252   0.9264   0.9270   0.9274   0.9350   0.9464
     0.9596   0.9632   0.9642   0.9678   0.9682   0.9694   0.9762   0.9870
     1.0032   1.0037   1.0068   1.0122   1.0131   1.0229   1.0285   1.0373
[...]
     3.8798   3.8840   3.8841   3.8975   3.9353   3.9915   4.0169   4.0332
     4.0335   4.0357   4.0369   4.0463   4.0469   4.0501   4.2765   4.2810
     4.2886   4.3029   4.4378   4.4878   4.7664   4.7896   4.8893   4.9304
     5.3258   5.3954   5.4433   5.4584   5.5763   5.7399   5.7560   5.7624
     5.7865   5.9557   5.9587   6.3418   6.3802   6.3950   6.4371   6.4602
     6.5070   6.5127   6.5171   6.5551   6.5968   6.6409   6.7245   6.7377
     6.7991   6.8224   6.8264   6.8395   7.0242   7.0655   7.0800   7.1201
     7.1265   7.1307   7.2633   7.3840   7.3876   7.5824   7.5951   7.6616
     7.7263   7.7322   7.7363   7.7582   7.9616   7.9881   8.1562   8.2254
     8.2438   8.3009   8.3316   8.3499   8.3589   8.3624   8.3827   8.4134
     8.4161   8.4423   8.5233   8.5594   8.5859   8.5918   8.6958   8.7016
     8.7019   8.7172   8.8071   8.8181   8.8648   8.8678   8.8770   8.8797
     9.0678   9.1298   9.1463   9.1472   9.1527   9.1562   9.1640   9.2184
     9.3350   9.3703   9.3768   9.3881   9.4203   9.6052   9.6070   9.6293
     9.6444   9.7548   9.8576   9.8843   9.9827  10.0313  10.0696  10.0708

[...]

          k = 0.2500-0.2165 0.0000 (256316 PWs)   bands (ev):

[...]

          k =-0.5000 0.0000 0.0000 (256496 PWs)   bands (ev):

[...]

          k =-0.5000-0.2165 0.0000 (256328 PWs)   bands (ev):

   -16.8875 -15.8914 -15.7856 -15.7785 -15.3363 -15.1565 -15.1055 -15.0790
   -13.9789 -13.7710 -13.6715 -13.6249 -12.5359 -12.3295 -11.9826 -11.9639
   -11.8847 -11.6962 -11.6356 -11.5432 -11.4957 -11.4951 -11.3738 -11.3657
   -10.0327  -9.9528  -9.7101  -9.6511  -9.0190  -8.9036  -8.7402  -8.7271
    -8.2132  -8.2106  -7.9687  -7.9209  -6.2890  -6.1937  -6.1897  -5.9096
    -5.7746  -5.5986  -5.4946  -5.3307  -5.2696  -5.2253  -5.1579  -5.1574
    -5.1551  -5.1495  -5.0074  -4.9786  -4.9622  -4.4616  -4.3801  -4.3650
    -4.3130  -4.2747  -4.1836  -4.1783  -4.1775  -4.1744  -4.1623  -4.1472
    -4.1124  -4.0100  -3.8955  -3.8623  -3.8388  -3.7852  -3.7784  -3.7208
    -3.6599  -3.5928  -3.5834  -3.5617  -3.5557  -3.4820  -3.4508  -3.4105
    -3.1926  -3.1184  -3.0429  -3.0292  -2.6134  -2.5582  -2.5568  -2.5547
    -2.5477  -2.5415  -2.5282  -2.4939  -2.4929  -2.4909  -2.3854  -2.3479
    -2.2912  -2.1246  -2.1211  -2.0731  -2.0718  -2.0553  -2.0431  -2.0053
    -1.9910  -1.9906  -1.9878  -1.9401  -1.9328  -1.8506  -1.7803  -1.7788
    -1.7768  -1.7760  -1.7165  -1.7020  -1.5706  -1.5421  -1.4829  -1.4728
    -1.4694  -1.4687  -1.4687  -1.4686  -1.4332  -1.4288  -1.4277  -1.4253
    -1.4093  -1.4087  -1.4069  -1.4069  -1.3616  -1.3610  -1.3602  -1.3593
    -1.3591  -1.3587  -1.3545  -1.3534  -1.3335  -1.3335  -1.3334  -1.3332
    -1.2853  -1.2850  -1.2821  -1.2820  -1.2358  -1.2277  -1.2067  -1.2061
    -1.2047  -1.1669  -1.1666  -1.1653  -1.1651  -1.1605  -1.1479  -1.1475
    -1.1463  -1.1302  -1.0978  -1.0962  -1.0957  -1.0945  -1.0907  -1.0905
    -1.0904  -1.0885  -1.0832  -1.0668  -1.0625  -1.0393  -1.0353  -1.0350
    -1.0297  -1.0291  -1.0181  -1.0177  -1.0131  -1.0128  -1.0126  -1.0118
    -1.0111  -1.0110  -0.9878  -0.9833  -0.9120  -0.8589  -0.8583  -0.8560
    -0.8560  -0.8283  -0.8281  -0.8279  -0.8275  -0.7619  -0.7467  -0.7461
    -0.7454  -0.7430  -0.7399  -0.7380  -0.7374  -0.7368  -0.7368  -0.7354
    -0.7117  -0.6774  -0.6754  -0.6750  -0.6726  -0.6653  -0.6649  -0.6642
    -0.6623  -0.6453  -0.6441  -0.6397  -0.6377  -0.5560  -0.5529  -0.5496
    -0.5484  -0.5448  -0.5433  -0.5412  -0.5388  -0.4742  -0.4741  -0.4728
    -0.4714  -0.4240  -0.4239  -0.4233  -0.4222  -0.4034  -0.4034  -0.4020
    -0.4018  -0.3934  -0.3819  -0.3765  -0.3744  -0.3651  -0.3642  -0.3633
    -0.3621  -0.3498  -0.3261  -0.3246  -0.3231  -0.2504  -0.2501  -0.2469
    -0.2468  -0.2323  -0.2320  -0.2318  -0.2317  -0.2212  -0.2162  -0.2151
    -0.2151  -0.1671  -0.1335  -0.1321  -0.1315  -0.1290  -0.1281  -0.1272
    -0.1265  -0.1262  -0.1247  -0.1245  -0.1225  -0.0983  -0.0868  -0.0867
    -0.0864  -0.0862  -0.0747  -0.0746  -0.0744  -0.0742  -0.0705  -0.0703
    -0.0689  -0.0629  -0.0186  -0.0015  -0.0009  -0.0004   0.0021   0.0243
     0.0251   0.0281   0.0290   0.0703   0.0743   0.0769   0.0829   0.0857
     0.0892   0.1030   0.1057   0.1058   0.1066   0.1085   0.1126   0.1130
     0.1136   0.1154   0.1171   0.1181   0.1197   0.1257   0.1262   0.1266
     0.1274   0.1317   0.1318   0.1335   0.1337   0.1484   0.1486   0.1490
     0.1498   0.1767   0.1767   0.1770   0.1771   0.1834   0.1858   0.1863
     0.1872   0.2060   0.2353   0.2360   0.2366   0.2375   0.2623   0.2686
     0.2692   0.2703   0.2809   0.3251   0.3379   0.3436   0.3492   0.3507
     0.3522   0.3527   0.3550   0.3630   0.3666   0.3693   0.3707   0.3720
     0.3741   0.3827   0.3832   0.3889   0.3910   0.3911   0.3917   0.3936
     0.3947   0.3976   0.3987   0.4024   0.4037   0.4128   0.4182   0.4224
     0.4722   0.4745   0.4763   0.4796   0.4816   0.4826   0.4838   0.4871
     0.4946   0.4950   0.4953   0.4956   0.5251   0.5299   0.5308   0.5340
     0.5349   0.5352   0.5399   0.5406   0.5408   0.5774   0.5783   0.5804
     0.5821   0.5880   0.5899   0.5922   0.5925   0.5938   0.5948   0.5951
     0.6003   0.6003   0.6009   0.6043   0.6145   0.6164   0.6177   0.6184
     0.6200   0.6293   0.6344   0.6351   0.6683   0.6953   0.7017   0.7033
     0.7062   0.7063   0.7080   0.7092   0.7106   0.7116   0.7117   0.7172
     0.7173   0.7293   0.7318   0.7369   0.7532   0.7545   0.7547   0.7554
     0.7560   0.7567   0.7569   0.7599   0.7900   0.8061   0.8084   0.8092
     0.8138   0.8365   0.8366   0.8375   0.8385   0.8472   0.8561   0.8583
     0.8723   0.8726   0.8736   0.8755   0.8968   0.8979   0.8996   0.8998
     0.9497   0.9509   0.9513   0.9517   0.9830   0.9837   0.9846   0.9856
     0.9976   1.0236   1.0343   1.0370   1.0399   1.0416   1.0496   1.0526
[...]
     3.9550   4.2438   4.2509   4.2525   4.2530   4.2984   4.3654   4.3746
     4.3771   4.4680   4.5433   4.5848   4.5878   4.5948   4.6147   4.6231
     4.6246   4.7466   4.8250   4.9024   4.9168   5.0153   5.0297   5.0967
     5.1650   5.1985   5.1996   5.2005   5.2188   5.2699   5.3092   5.3261
     5.3677   5.3725   5.3792   5.3935   5.4330   5.6404   5.7528   5.7625
     5.7711   5.7739   5.7790   5.7813   5.8584   5.9269   5.9302   5.9358
     6.7569   6.7938   6.8087   6.8243   6.8265   7.1351   7.1402   7.1582
     7.1648   7.1797   7.1834   7.1841   7.2091   7.2979   7.3156   7.3262
     7.3532   7.3923   7.3933   7.3948   7.4057   7.6441   7.6466   7.6534
     7.6698   7.6928   7.9103   7.9306   7.9969   8.0096   8.0164   8.0239
     8.0810   8.1851   8.2567   8.2602   8.2647   8.2830   8.3286   8.3573
     8.8735   8.9156   8.9175   8.9239   8.9241   8.9356   8.9456   8.9481
     8.9893   8.9924   8.9942   8.9973   9.0386   9.1067   9.1216   9.1280
     9.1400   9.2026   9.2851   9.3131   9.4052   9.5521   9.5611   9.5836
     9.5921   9.5997   9.6103   9.6244   9.7205   9.8975   9.9113   9.9580

     the Fermi energy is     3.3470 ev

!    total energy              =  -12708.27620324 Ry
     Harris-Foulkes estimate   =  -12708.27620324 Ry
     estimated scf accuracy    <          6.2E-09 Ry

     The total energy is the sum of the following terms:

     one-electron contribution = -109384.66111038 Ry
     hartree contribution      =   56055.56172906 Ry
     xc contribution           =   -4448.57619303 Ry
     ewald contribution        =   45075.75455794 Ry
     Dispersion Correction     =      -2.99695788 Ry
     smearing contrib. (-TS)   =      -3.35822894 Ry

     convergence has been achieved in  45 iterations

     Writing output data file gc.save

     General routines

     Parallel routines

   This run was terminated on:  14: 2:50  12May2017

   JOB DONE.