     Program PWSCF v.5.4.0 starts on 13Jan2017 at  4: 1:54

     Current dimensions of program PWSCF are:
     Max number of different atomic species (ntypx) = 10
     Max number of k-points (npk) =  40000
     Max angular momentum in pseudopotentials (lmaxx) =  3
     WARNING: atomic wfc #  2 for atom type 4 has zero norm
     WARNING: atomic wfc #  4 for atom type 4 has zero norm
     WARNING: atomic wfc #  5 for atom type 4 has zero norm

     Parameters for Dispersion Correction:
       atom      VdW radius       C_6

        Cu         2.952        374.666
        C_h        2.744         60.710
        C          2.744         60.710
        O          2.536         24.284

     bravais-lattice index     =            0
     lattice parameter (alat)  =      13.9425  a.u.
     unit-cell volume          =   21209.0878 (a.u.)^3
     number of atoms/cell      =          149
     number of atomic types    =            4
     number of electrons       =      1298.00
     number of Kohn-Sham states=          779
     kinetic-energy cutoff     =      80.0000  Ry
     charge density cutoff     =     320.0000  Ry
     convergence threshold     =      1.0E-08
     mixing beta               =       0.7000
     number of iterations used =            8  local-TF  mixing
     Exchange-correlation      =  SLA  PW   PBX  PBC ( 1  4  3  4 0 0)

     celldm(1)=  13.942539  celldm(2)=   0.000000  celldm(3)=   0.000000
     celldm(4)=   0.000000  celldm(5)=   0.000000  celldm(6)=   0.000000

     crystal axes: (cart. coord. in units of alat)
               a(1) = (   1.000000   0.000000   0.000000 )
               a(2) = (   0.000000   2.309401   0.000000 )
               a(3) = (   0.000000   0.000000   3.388418 )

     reciprocal axes: (cart. coord. in units 2 pi/alat)
               b(1) = (  1.000000  0.000000  0.000000 )
               b(2) = (  0.000000  0.433013  0.000000 )
               b(3) = (  0.000000  0.000000  0.295123 )

     PseudoPot. # 1 for Cu read from file:
     /home/549/hxw549/Short/pseudopotentials/Cu.pbe-n-van_ak.UPF
     MD5 check sum: 601f7c30f7467666bec936e0661ce3e1
     Pseudo is Ultrasoft + core correction, Zval = 11.0
     Generated by new atomic code, or converted to UPF format
     Using radial grid of  867 points,  6 beta functions with:
                l(1) =   0
                l(2) =   0
                l(3) =   1
                l(4) =   1
                l(5) =   2
                l(6) =   2
     Q(r) pseudized with  8 coefficients,  rinner =    1.400   1.400   1.400
                                                       1.400   1.400

     PseudoPot. # 2 for C  read from file:
     /home/549/hxw549/Short/pseudopotentials/C.star1s-pbe-mt_gipaw.UPF
     MD5 check sum: ef0cb3dee31bd9e4ba2a832a2c716264
     Pseudo is Norm-conserving, Zval =  5.0
     Generated by new atomic code, or converted to UPF format
     Using radial grid of 1073 points,  1 beta functions with:
                l(1) =   0

     PseudoPot. # 3 for C  read from file:
     /home/549/hxw549/Short/pseudopotentials/C.pbe-mt_gipaw.UPF
     MD5 check sum: 5ac2f21f2c440b14befe521540822c15
     Pseudo is Norm-conserving, Zval =  4.0
     Generated by new atomic code, or converted to UPF format
     Using radial grid of 1073 points,  1 beta functions with:
                l(1) =   0

     PseudoPot. # 4 for O  read from file:
     /home/549/hxw549/Short/pseudopotentials/O.pbe-van_gipaw.UPF
     MD5 check sum: 5ce2a047509d4f331db576c963e74b29
     Pseudo is Ultrasoft, Zval =  6.0
     Generated by new atomic code, or converted to UPF format
     Using radial grid of 1095 points,  4 beta functions with:
                l(1) =   0
                l(2) =   0
                l(3) =   1
                l(4) =   1
     Q(r) pseudized with 0 coefficients

     atomic species   valence    mass     pseudopotential
        Cu            11.00    63.54600     Cu( 1.00)
        C_h            5.00    12.01070     C ( 1.00)
        C              4.00    12.01070     C ( 1.00)
        O              6.00    15.99940     O ( 1.00)

     No symmetry found

   Cartesian axes

     site n.     atom                  positions (alat units)
         1           Cu  tau(   1) = (  -0.0000267   0.0003068   0.9983929  )
         2           Cu  tau(   2) = (   0.2500036   0.2312703   0.9983145  )
         3           Cu  tau(   3) = (   0.4999803   0.0002594   0.9983489  )
         4           Cu  tau(   4) = (   0.7499895   0.2312918   0.9983342  )
         5           Cu  tau(   5) = (   0.0000225   0.4620329   0.9981170  )
         6           Cu  tau(   6) = (   0.2500219   0.6928138   0.9977793  )
         7           Cu  tau(   7) = (   0.5000145   0.4620708   0.9980771  )
         8           Cu  tau(   8) = (   0.7500464   0.6928005   0.9977795  )
         9           Cu  tau(   9) = (   0.0000444   0.9236560   0.9976799  )
        10           Cu  tau(  10) = (   0.2500468   1.1544894   0.9979087  )
        11           Cu  tau(  11) = (   0.5000294   0.9236428   0.9976663  )
        12           Cu  tau(  12) = (   0.7500113   1.1544661   0.9979233  )
        13           Cu  tau(  13) = (  -0.0000030   1.3852325   0.9982653  )
        14           Cu  tau(  14) = (   0.2500078   1.6159458   0.9985773  )
        15           Cu  tau(  15) = (   0.5000250   1.3851939   0.9983781  )
        16           Cu  tau(  16) = (   0.7499695   1.6160612   0.9985012  )
        17           Cu  tau(  17) = (   0.0000343   1.8470384   0.9985232  )
        18           Cu  tau(  18) = (   0.2499384   2.0784489   0.9984548  )
        19           Cu  tau(  19) = (   0.4999091   1.8470915   0.9984673  )
        20           Cu  tau(  20) = (   0.7499959   2.0783416   0.9983130  )
        21           Cu  tau(  21) = (   0.0000812   0.2314093   1.2467788  )
        22           Cu  tau(  22) = (   0.2500218   0.0003249   1.2465774  )
        23           Cu  tau(  23) = (   0.5000485   0.2314075   1.2466680  )
        24           Cu  tau(  24) = (   0.7500266   0.0001653   1.2463696  )
        25           Cu  tau(  25) = (   0.0001623   0.6931214   1.2464311  )
        26           Cu  tau(  26) = (   0.2501033   0.4623525   1.2466471  )
        27           Cu  tau(  27) = (   0.5001337   0.6931028   1.2464251  )
        28           Cu  tau(  28) = (   0.7501184   0.4623956   1.2466785  )
        29           Cu  tau(  29) = (   0.0001568   1.1541245   1.2464838  )
        30           Cu  tau(  30) = (   0.2501615   0.9236200   1.2463252  )
        31           Cu  tau(  31) = (   0.5001177   1.1540045   1.2466424  )
        32           Cu  tau(  32) = (   0.7501390   0.9235859   1.2463014  )
        33           Cu  tau(  33) = (   0.0000729   1.6157545   1.2468989  )
        34           Cu  tau(  34) = (   0.2501093   1.3847381   1.2469554  )
        35           Cu  tau(  35) = (   0.5000326   1.6158869   1.2468953  )
        36           Cu  tau(  36) = (   0.7500890   1.3848287   1.2468265  )
        37           Cu  tau(  37) = (   0.0000323   2.0783589   1.2463249  )
        38           Cu  tau(  38) = (   0.2500077   1.8470268   1.2466081  )
        39           Cu  tau(  39) = (   0.4999755   2.0783445   1.2462814  )
        40           Cu  tau(  40) = (   0.7500223   1.8470837   1.2465241  )
        41           Cu  tau(  41) = (   0.0002124  -0.0001420   1.4956913  )
        42           Cu  tau(  42) = (   0.2502432   0.2315683   1.4963144  )
        43           Cu  tau(  43) = (   0.5000580  -0.0001022   1.4955702  )
        44           Cu  tau(  44) = (   0.7501834   0.2311697   1.4957919  )
        45           Cu  tau(  45) = (   0.0003849   0.4627079   1.4963383  )
        46           Cu  tau(  46) = (   0.2503961   0.6934059   1.4964363  )
        47           Cu  tau(  47) = (   0.5002404   0.4626228   1.4962459  )
        48           Cu  tau(  48) = (   0.7504437   0.6934576   1.4964425  )
        49           Cu  tau(  49) = (   0.0004625   0.9237210   1.4966639  )
        50           Cu  tau(  50) = (   0.2503244   1.1534720   1.4969567  )
        51           Cu  tau(  51) = (   0.5003991   0.9233981   1.4968565  )
        52           Cu  tau(  52) = (   0.7504645   1.1536830   1.4965640  )
        53           Cu  tau(  53) = (   0.0003821   1.3842432   1.4966806  )
        54           Cu  tau(  54) = (   0.2501321   1.6156588   1.4962873  )
        55           Cu  tau(  55) = (   0.5002113   1.3843989   1.4963900  )
        56           Cu  tau(  56) = (   0.7502647   1.6157441   1.4960739  )
        57           Cu  tau(  57) = (   0.0001207   1.8471506   1.4957144  )
        58           Cu  tau(  58) = (   0.2500858   2.0782753   1.4956306  )
        59           Cu  tau(  59) = (   0.5001251   1.8473075   1.4957920  )
        60           Cu  tau(  60) = (   0.7501138   2.0783207   1.4955742  )
[...]
       117           C   tau( 117) = (   0.3316218   0.6703151   2.3800734  )
       118           C   tau( 118) = (   0.3292206   0.8643671   2.4184809  )
       119           C   tau( 119) = (   0.4987612   0.5771637   2.3788923  )
       120           C   tau( 120) = (   0.5021138   0.9644200   2.4216837  )
       121           O   tau( 121) = (   0.4140165   0.9101453   2.5990232  )
       122           C   tau( 122) = (   0.6663442   0.6742083   2.3806324  )
       123           C   tau( 123) = (   0.6689595   0.8654305   2.3851659  )
       124           C   tau( 124) = (   0.8329766   0.5774622   2.3796904  )
       125           C   tau( 125) = (   0.8321191   0.9628646   2.3782389  )
       126           C   tau( 126) = (  -0.0010921   1.2520160   2.3785180  )
       127           C   tau( 127) = (  -0.0007197   1.4446627   2.3773574  )
       128           C   tau( 128) = (   0.1654289   1.1553812   2.3831881  )
       129           C   tau( 129) = (   0.1661398   1.5408122   2.3809588  )
       130           C   tau( 130) = (   0.3332591   1.2524179   2.3871897  )
       131           C   tau( 131) = (   0.3327347   1.4447081   2.3843921  )
       132           C_h tau( 132) = (   0.4999577   1.1596325   2.3913607  )
       133           C   tau( 133) = (   0.4993062   1.5408861   2.3859785  )
       134           C   tau( 134) = (   0.6656079   1.2530081   2.3829609  )
       135           C   tau( 135) = (   0.6659456   1.4454088   2.3819018  )
       136           C   tau( 136) = (   0.8327273   1.1559617   2.3795433  )
       137           C   tau( 137) = (   0.8326004   1.5410745   2.3794124  )
       138           C   tau( 138) = (  -0.0005841   1.8293317   2.3831804  )
       139           C   tau( 139) = (  -0.0006107   2.0215344   2.3872925  )
       140           C   tau( 140) = (   0.1662470   1.7330653   2.3837749  )
       141           C   tau( 141) = (   0.1660003   2.1175423   2.3879995  )
       142           C   tau( 142) = (   0.3327657   1.8291420   2.3882670  )
       143           C   tau( 143) = (   0.3327961   2.0213806   2.3890482  )
       144           C   tau( 144) = (   0.4993270   1.7331699   2.3878917  )
       145           C   tau( 145) = (   0.4993850   2.1173816   2.3892301  )
       146           C   tau( 146) = (   0.6659668   1.8291231   2.3874666  )
       147           C   tau( 147) = (   0.6659485   2.0213555   2.3883541  )
       148           C   tau( 148) = (   0.8325583   1.7332547   2.3830305  )
       149           C   tau( 149) = (   0.8327361   2.1174924   2.3876620  )

     number of k points=     6  gaussian smearing, width (Ry)=  0.1000
                       cart. coord. in units 2pi/alat
        k(    1) = (   0.0000000   0.0000000   0.0000000), wk =   0.2500000
        k(    2) = (   0.0000000  -0.2165064   0.0000000), wk =   0.2500000
        k(    3) = (   0.2500000   0.0000000   0.0000000), wk =   0.5000000
        k(    4) = (   0.2500000  -0.2165064   0.0000000), wk =   0.5000000
        k(    5) = (  -0.5000000   0.0000000   0.0000000), wk =   0.2500000
        k(    6) = (  -0.5000000  -0.2165064   0.0000000), wk =   0.2500000

     Largest allocated arrays     est. size (Mb)     dimensions
     Largest temporary arrays     est. size (Mb)     dimensions

     Initial potential from superposition of free atoms
     Check: negative starting charge=   -0.001800

     starting charge 1272.81751, renormalised to 1298.00000

     negative rho (up, down):  1.836E-03 0.000E+00
     Starting wfc are 1288 randomized atomic wfcs

     Self-consistent Calculation

     iteration #  1     ecut=    80.00 Ry     beta=0.70
     Davidson diagonalization with overlap
     c_bands:  3 eigenvalues not converged
     c_bands:  2 eigenvalues not converged
     c_bands:  5 eigenvalues not converged
     c_bands:  1 eigenvalues not converged
     ethr =  1.00E-04,  avg # of iterations = 33.2

     negative rho (up, down):  2.543E+01 0.000E+00

     total energy              =   -9769.27088102 Ry
     Harris-Foulkes estimate   =  -17290.37055100 Ry
     estimated scf accuracy    <  178178.75267090 Ry

     iteration #  2     ecut=    80.00 Ry     beta=0.70
     Davidson diagonalization with overlap
     ethr =  1.00E-02,  avg # of iterations = 11.8

[...]

     iteration # 35     ecut=    80.00 Ry     beta=0.70
     Davidson diagonalization with overlap
     c_bands:  1 eigenvalues not converged
     ethr =  4.77E-08,  avg # of iterations = 12.7

[...]

     total energy              =  -12738.85366158 Ry
     Harris-Foulkes estimate   =  -12738.85366160 Ry
     estimated scf accuracy    <       0.00000001 Ry

     iteration # 46     ecut=    80.00 Ry     beta=0.70
     Davidson diagonalization with overlap
     ethr =  8.03E-13,  avg # of iterations =  3.0

     negative rho (up, down):  2.094E-03 0.000E+00

     End of self-consistent calculation

          k = 0.0000 0.0000 0.0000 (256287 PWs)   bands (ev):

   -19.3723 -16.8371 -16.2765 -15.9537 -15.4372 -14.9280 -14.7595 -14.5616
   -14.3002 -14.2329 -14.1566 -13.9939 -13.4144 -13.2184 -13.1744 -13.1394
   -13.1186 -12.6363 -11.6152 -11.5408 -11.4193 -11.3083 -11.0919 -10.3567
    -9.7781  -9.7498  -9.6361  -9.4577  -8.9653  -8.8239  -8.7174  -8.6151
    -8.0463  -7.9286  -7.7964  -7.6629  -7.6297  -7.5824  -7.5625  -7.5536
    -6.4442  -6.3718  -6.2079  -6.0897  -6.0734  -6.0307  -5.9356  -5.9074
    -5.8626  -5.5446  -5.5375  -5.2167  -4.9420  -4.9158  -4.8506  -4.7270
    -4.6442  -4.6286  -4.5052  -4.2894  -4.1504  -4.0885  -4.0447  -4.0415
    -3.9637  -3.7938  -3.6973  -3.5903  -3.5688  -3.4754  -3.4621  -3.4465
    -3.4399  -3.2891  -3.2312  -3.2158  -3.1825  -3.1217  -3.0647  -3.0625
    -3.0589  -3.0548  -2.9567  -2.9133  -2.8678  -2.8452  -2.7968  -2.7938
    -2.7826  -2.7621  -2.7306  -2.6560  -2.5379  -2.4637  -2.4322  -2.3953
    -2.3914  -2.3038  -2.2681  -2.2475  -2.2462  -2.2169  -2.2070  -2.2067
    -2.2064  -2.2055  -2.1755  -2.1466  -2.0781  -2.0771  -2.0746  -2.0738
    -2.0614  -2.0114  -1.8953  -1.8482  -1.8314  -1.7947  -1.7933  -1.7928
    -1.7817  -1.7546  -1.7434  -1.7268  -1.7134  -1.7111  -1.6932  -1.6565
    -1.6493  -1.6252  -1.6181  -1.6170  -1.6107  -1.6026  -1.5909  -1.5837
    -1.5700  -1.5688  -1.5624  -1.5000  -1.4908  -1.4710  -1.4606  -1.4583
    -1.4459  -1.4269  -1.4074  -1.3839  -1.3535  -1.3203  -1.3172  -1.3143
    -1.3036  -1.2666  -1.2654  -1.2496  -1.2461  -1.2440  -1.2213  -1.2187
    -1.1826  -1.1739  -1.1587  -1.1094  -1.1041  -1.0998  -1.0951  -1.0867
    -1.0779  -1.0774  -1.0763  -1.0757  -1.0718  -1.0705  -1.0636  -1.0620
    -1.0530  -1.0375  -1.0154  -1.0066  -0.9932  -0.9847  -0.9803  -0.9739
    -0.9735  -0.9712  -0.9421  -0.9139  -0.9124  -0.9112  -0.9103  -0.9091
    -0.9087  -0.9078  -0.9063  -0.9054  -0.9039  -0.9026  -0.9024  -0.8992
    -0.8968  -0.8964  -0.8855  -0.8814  -0.8615  -0.8533  -0.8401  -0.7453
    -0.7439  -0.7408  -0.7380  -0.7373  -0.7162  -0.7140  -0.6968  -0.6962
    -0.6759  -0.6739  -0.6671  -0.6603  -0.6553  -0.6546  -0.6425  -0.6206
    -0.6194  -0.6156  -0.6152  -0.6086  -0.6080  -0.5973  -0.5966  -0.5738
    -0.5479  -0.5463  -0.4932  -0.4930  -0.4835  -0.4820  -0.4797  -0.4788
    -0.4653  -0.4642  -0.4598  -0.4589  -0.4586  -0.4579  -0.4551  -0.4545
    -0.4396  -0.4395  -0.4341  -0.4316  -0.4300  -0.4065  -0.4058  -0.4053
    -0.3554  -0.3530  -0.3507  -0.3457  -0.3456  -0.3200  -0.3198  -0.3175
    -0.3174  -0.3103  -0.3018  -0.2995  -0.2970  -0.2968  -0.2787  -0.2749
    -0.2738  -0.2724  -0.2707  -0.2691  -0.2677  -0.2657  -0.2644  -0.2641
    -0.2589  -0.2447  -0.2446  -0.2424  -0.2412  -0.2210  -0.1783  -0.1751
    -0.1730  -0.1724  -0.1706  -0.1697  -0.1272  -0.1260  -0.1226  -0.1222
    -0.1170  -0.1168  -0.1165  -0.1157  -0.1150  -0.1058  -0.0970  -0.0842
    -0.0646  -0.0631  -0.0621  -0.0600  -0.0539  -0.0376  -0.0341  -0.0334
    -0.0296  -0.0280  -0.0226  -0.0090  -0.0082  -0.0081  -0.0079  -0.0051
    -0.0037   0.0079   0.0091   0.0095   0.0098   0.0126   0.0203   0.0216
     0.0301   0.0471   0.0486   0.0709   0.0808   0.0832   0.1093   0.1107
     0.1225   0.1347   0.1417   0.1515   0.1785   0.1812   0.1820   0.1880
     0.1884   0.1914   0.2146   0.2164   0.2184   0.2191   0.2207   0.2258
     0.2306   0.2352   0.2727   0.2861   0.2868   0.2886   0.2938   0.2968
     0.2984   0.3201   0.3233   0.3285   0.3292   0.3302   0.3324   0.3598
     0.3624   0.3663   0.3747   0.3801   0.3858   0.3861   0.3875   0.4202
     0.4244   0.4364   0.4399   0.4410   0.4451   0.4452   0.4536   0.4615
     0.4679   0.4754   0.4762   0.4794   0.4805   0.4812   0.4833   0.4851
     0.4891   0.4910   0.4949   0.4974   0.5005   0.5015   0.5074   0.5095
     0.5109   0.5414   0.5475   0.5518   0.5522   0.5572   0.5662   0.5929
     0.5931   0.5940   0.5952   0.5999   0.6003   0.6006   0.6015   0.6037
     0.6148   0.6204   0.6231   0.6248   0.6261   0.6267   0.6334   0.6335
     0.6433   0.6462   0.6560   0.6661   0.6667   0.6691   0.6726   0.6803
     0.6843   0.6884   0.6931   0.6948   0.6948   0.6966   0.7001   0.7012
     0.7029   0.7049   0.7143   0.7513   0.7521   0.7620   0.7640   0.7672
     0.7687   0.7702   0.7709   0.7928   0.7984   0.8017   0.8128   0.8196
     0.8222   0.8223   0.8230   0.8361   0.8366   0.8451   0.8465   0.8480
     0.8499   0.8544   0.8667   0.8820   0.8836   0.8871   0.8880   0.8881
     0.8896   0.9016   0.9064   0.9228   0.9290   0.9317   0.9333   0.9431
[...]
     3.9270   3.9482   3.9546   3.9551   3.9596   3.9614   3.9682   3.9758
     4.1010   4.2048   4.2104   4.2146   4.2443   4.3805   4.5365   4.7094
     4.7190   4.8833   5.1901   5.2476   5.3594   5.3796   5.3965   5.6204
     5.6731   5.6859   5.6933   5.8224   5.8802   5.9294   6.2945   6.3199
     6.3369   6.3583   6.3825   6.4367   6.4406   6.4581   6.4991   6.5530
     6.6503   6.6531   6.7158   6.7423   6.7711   6.8059   6.9457   6.9611
     6.9979   7.0138   7.0498   7.0604   7.1615   7.3042   7.3084   7.5185
     7.5252   7.5850   7.6529   7.6563   7.6611   7.6786   7.7418   8.0823
     8.1393   8.1621   8.1815   8.2727   8.2818   8.2837   8.2909   8.3027
     8.3248   8.3513   8.3575   8.3628   8.3795   8.4892   8.4994   8.5111
     8.6198   8.6217   8.6278   8.6358   8.7130   8.7886   8.7913   8.7966
     8.8026   8.8353   8.8413   9.0385   9.0766   9.0804   9.0861   9.0906
     9.0989   9.1863   9.2688   9.2928   9.2971   9.4011   9.5228   9.5286
     9.6237   9.6551   9.7516   9.7767   9.7875   9.9269   9.9889   9.9902
    10.0520  10.0848  10.1355

[...]

          k = 0.2500-0.2165 0.0000 (256316 PWs)   bands (ev):

[...]

          k =-0.5000 0.0000 0.0000 (256496 PWs)   bands (ev):

[...]

          k =-0.5000-0.2165 0.0000 (256328 PWs)   bands (ev):

   -19.3669 -16.6962 -15.9656 -15.8431 -15.7713 -15.4109 -15.1828 -15.1587
   -14.8232 -14.0202 -13.7442 -13.7179 -13.4126 -12.6426 -12.4102 -12.0480
   -12.0283 -11.7882 -11.7784 -11.6420 -11.6128 -11.5718 -11.5154 -11.4419
   -11.0730 -10.0520 -10.0065  -9.7969  -9.6789  -9.1865  -8.8918  -8.8150
    -8.7838  -8.3143  -8.2375  -8.0477  -8.0190  -6.5558  -6.3550  -6.1771
    -5.9777  -5.8688  -5.6927  -5.4378  -5.4147  -5.3492  -5.3095  -5.2380
    -5.2370  -5.2355  -5.2328  -5.0939  -5.0600  -4.7707  -4.6372  -4.4971
    -4.4806  -4.3928  -4.3707  -4.3545  -4.2677  -4.2606  -4.2532  -4.2508
    -4.2479  -4.1685  -4.0800  -4.0032  -3.9700  -3.9210  -3.8992  -3.8532
    -3.8214  -3.7681  -3.7523  -3.6599  -3.6298  -3.6046  -3.5216  -3.5099
    -3.4532  -3.2414  -3.1385  -3.1157  -3.0819  -2.8827  -2.7139  -2.6383
    -2.6342  -2.6328  -2.6313  -2.6162  -2.5839  -2.5746  -2.5731  -2.5387
    -2.4963  -2.4191  -2.2440  -2.1883  -2.1544  -2.1514  -2.1472  -2.1183
    -2.0995  -2.0801  -2.0677  -2.0660  -2.0593  -2.0384  -1.8598  -1.8587
    -1.8569  -1.8540  -1.8418  -1.8035  -1.7811  -1.6895  -1.6072  -1.5859
    -1.5543  -1.5487  -1.5484  -1.5477  -1.5475  -1.5144  -1.5087  -1.5080
    -1.5072  -1.4888  -1.4884  -1.4873  -1.4871  -1.4613  -1.4409  -1.4403
    -1.4398  -1.4388  -1.4382  -1.4373  -1.4349  -1.4306  -1.4136  -1.4133
    -1.4126  -1.4122  -1.3652  -1.3624  -1.3618  -1.3605  -1.3236  -1.2933
    -1.2870  -1.2840  -1.2795  -1.2462  -1.2455  -1.2451  -1.2447  -1.2278
    -1.2274  -1.2263  -1.2241  -1.1799  -1.1774  -1.1755  -1.1751  -1.1711
    -1.1706  -1.1704  -1.1699  -1.1647  -1.1567  -1.1487  -1.1318  -1.1267
    -1.1146  -1.1142  -1.1100  -1.1077  -1.0974  -1.0971  -1.0933  -1.0931
    -1.0920  -1.0914  -1.0906  -1.0899  -1.0832  -1.0607  -0.9397  -0.9384
    -0.9377  -0.9350  -0.9081  -0.9075  -0.9072  -0.9067  -0.8366  -0.8317
    -0.8266  -0.8258  -0.8239  -0.8229  -0.8186  -0.8177  -0.8172  -0.8166
    -0.8158  -0.8123  -0.7568  -0.7552  -0.7543  -0.7537  -0.7467  -0.7445
    -0.7437  -0.7433  -0.7258  -0.7240  -0.7208  -0.7175  -0.6540  -0.6330
    -0.6297  -0.6269  -0.6257  -0.6239  -0.6229  -0.6150  -0.5546  -0.5538
    -0.5529  -0.5517  -0.5065  -0.5044  -0.5035  -0.5029  -0.4859  -0.4836
    -0.4832  -0.4820  -0.4813  -0.4610  -0.4564  -0.4532  -0.4448  -0.4442
    -0.4433  -0.4424  -0.4295  -0.4136  -0.4049  -0.4037  -0.3316  -0.3301
    -0.3298  -0.3269  -0.3260  -0.3125  -0.3119  -0.3115  -0.3111  -0.2981
    -0.2960  -0.2946  -0.2915  -0.2394  -0.2123  -0.2118  -0.2095  -0.2091
    -0.2083  -0.2077  -0.2067  -0.2060  -0.2048  -0.2032  -0.1980  -0.1691
    -0.1669  -0.1668  -0.1663  -0.1632  -0.1550  -0.1546  -0.1542  -0.1530
    -0.1510  -0.1499  -0.1489  -0.1344  -0.0948  -0.0814  -0.0807  -0.0792
    -0.0772  -0.0555  -0.0542  -0.0529  -0.0495  -0.0100  -0.0054  -0.0003
     0.0025   0.0082   0.0227   0.0237   0.0254   0.0263   0.0278   0.0294
     0.0323   0.0345   0.0360   0.0368   0.0390   0.0395   0.0451   0.0459
     0.0460   0.0473   0.0520   0.0521   0.0531   0.0533   0.0623   0.0682
     0.0687   0.0698   0.0714   0.0967   0.0968   0.0969   0.0971   0.1037
     0.1058   0.1074   0.1090   0.1341   0.1555   0.1565   0.1571   0.1588
     0.1883   0.1885   0.1892   0.1915   0.2018   0.2469   0.2531   0.2691
     0.2701   0.2708   0.2724   0.2760   0.2807   0.2859   0.2890   0.2897
     0.2912   0.2943   0.3025   0.3033   0.3052   0.3097   0.3110   0.3112
     0.3131   0.3132   0.3157   0.3161   0.3191   0.3237   0.3301   0.3380
     0.3409   0.3897   0.3900   0.3972   0.3984   0.3996   0.4021   0.4023
     0.4048   0.4149   0.4152   0.4153   0.4160   0.4422   0.4463   0.4519
     0.4533   0.4545   0.4560   0.4587   0.4599   0.4618   0.4836   0.4938
     0.4973   0.4990   0.5001   0.5019   0.5118   0.5129   0.5138   0.5140
     0.5152   0.5202   0.5203   0.5216   0.5235   0.5332   0.5341   0.5352
     0.5379   0.5394   0.5466   0.5527   0.5542   0.5859   0.5924   0.6100
     0.6158   0.6221   0.6247   0.6263   0.6277   0.6282   0.6293   0.6309
     0.6365   0.6370   0.6412   0.6437   0.6567   0.6734   0.6738   0.6744
     0.6750   0.6753   0.6761   0.6768   0.6787   0.6905   0.7144   0.7226
     0.7289   0.7318   0.7324   0.7478   0.7565   0.7572   0.7584   0.7593
     0.7716   0.7927   0.7932   0.7936   0.7948   0.8159   0.8179   0.8189
     0.8206   0.8361   0.8640   0.8699   0.8703   0.8714   0.8722   0.9031
     0.9040   0.9043   0.9065   0.9321   0.9496   0.9558   0.9568   0.9584
[...]
     4.2575   4.3009   4.3025   4.3156   4.4820   4.4957   4.5145   4.5202
     4.5209   4.5408   4.5560   4.6246   4.7552   4.8057   4.8481   4.9276
     4.9631   5.0224   5.0681   5.0984   5.1234   5.1250   5.1414   5.1446
     5.1989   5.2366   5.2813   5.3042   5.3175   5.3251   5.3606   5.4251
     5.6727   5.6901   5.6940   5.6969   5.7019   5.7103   5.8137   5.8559
     5.8620   5.8676   6.0892   6.7099   6.7168   6.7385   6.7453   6.9976
     7.0575   7.0761   7.0808   7.0886   7.1087   7.1118   7.1159   7.1790
     7.2423   7.2541   7.2606   7.2933   7.3144   7.3172   7.3189   7.3723
     7.5781   7.5823   7.5918   7.6491   7.7732   7.9278   7.9346   7.9463
     7.9574   7.9853   8.1276   8.1743   8.1808   8.1989   8.2761   8.3970
     8.4130   8.5046   8.5710   8.8166   8.8383   8.8424   8.8438   8.8685
     8.8774   8.8795   8.8891   8.9027   8.9123   8.9161   8.9183   9.0465
     9.1273   9.1278   9.1408   9.1680   9.4367   9.4396   9.4610   9.4908
     9.4943   9.5114   9.5233   9.5456   9.5487   9.5548   9.5791   9.8076
    10.0184  10.0204  10.0650

     the Fermi energy is     3.2669 ev

!    total energy              =  -12738.85366159 Ry
     Harris-Foulkes estimate   =  -12738.85366158 Ry
     estimated scf accuracy    <          2.5E-09 Ry

     The total energy is the sum of the following terms:

     one-electron contribution = -109178.52741134 Ry
     hartree contribution      =   55951.43940884 Ry
     xc contribution           =   -4454.80952400 Ry
     ewald contribution        =   44949.40140717 Ry
     Dispersion Correction     =      -3.00103089 Ry
     smearing contrib. (-TS)   =      -3.35651138 Ry

     convergence has been achieved in  46 iterations

     Writing output data file gc.save

     General routines

     Parallel routines

   This run was terminated on:   7:53:19  13Jan2017

   JOB DONE.