     Program PWSCF v.5.4.0 starts on 20Apr2017 at 13: 1:54

     Current dimensions of program PWSCF are:
     Max number of different atomic species (ntypx) = 10
     Max number of k-points (npk) =  40000
     Max angular momentum in pseudopotentials (lmaxx) =  3

     Parameters for Dispersion Correction:
       atom      VdW radius       C_6

        Cu         2.952        374.666
        C_h        2.744         60.710
        C          2.744         60.710

     bravais-lattice index     =            0
     lattice parameter (alat)  =      13.9425  a.u.
     unit-cell volume          =   21209.0878 (a.u.)^3
     number of atoms/cell      =          156
     number of atomic types    =            3
     number of electrons       =      1380.00
     number of Kohn-Sham states=          828
     kinetic-energy cutoff     =      80.0000  Ry
     charge density cutoff     =     320.0000  Ry
     convergence threshold     =      1.0E-08
     mixing beta               =       0.7000
     number of iterations used =            8  local-TF  mixing
     Exchange-correlation      =  SLA  PW   PBX  PBC ( 1  4  3  4 0 0)

     celldm(1)=  13.942539  celldm(2)=   0.000000  celldm(3)=   0.000000
     celldm(4)=   0.000000  celldm(5)=   0.000000  celldm(6)=   0.000000

     crystal axes: (cart. coord. in units of alat)
               a(1) = (   1.000000   0.000000   0.000000 )
               a(2) = (   0.000000   2.309401   0.000000 )
               a(3) = (   0.000000   0.000000   3.388418 )

     reciprocal axes: (cart. coord. in units 2 pi/alat)
               b(1) = (  1.000000  0.000000  0.000000 )
               b(2) = (  0.000000  0.433013  0.000000 )
               b(3) = (  0.000000  0.000000  0.295123 )

     PseudoPot. # 1 for Cu read from file:
     /home/549/hxw549/Short/pseudopotentials/Cu.pbe-n-van_ak.UPF
     MD5 check sum: 601f7c30f7467666bec936e0661ce3e1
     Pseudo is Ultrasoft + core correction, Zval = 11.0
     Generated by new atomic code, or converted to UPF format
     Using radial grid of  867 points,  6 beta functions with:
                l(1) =   0
                l(2) =   0
                l(3) =   1
                l(4) =   1
                l(5) =   2
                l(6) =   2
     Q(r) pseudized with  8 coefficients,  rinner =    1.400   1.400   1.400
                                                       1.400   1.400

     PseudoPot. # 2 for C  read from file:
     /home/549/hxw549/Short/pseudopotentials/C.star1s-pbe-mt_gipaw.UPF
     MD5 check sum: ef0cb3dee31bd9e4ba2a832a2c716264
     Pseudo is Norm-conserving, Zval =  5.0
     Generated by new atomic code, or converted to UPF format
     Using radial grid of 1073 points,  1 beta functions with:
                l(1) =   0

     PseudoPot. # 3 for C  read from file:
     /home/549/hxw549/Short/pseudopotentials/C.pbe-mt_gipaw.UPF
     MD5 check sum: 5ac2f21f2c440b14befe521540822c15
     Pseudo is Norm-conserving, Zval =  4.0
     Generated by new atomic code, or converted to UPF format
     Using radial grid of 1073 points,  1 beta functions with:
                l(1) =   0

     atomic species   valence    mass     pseudopotential
        Cu            11.00    63.54600     Cu( 1.00)
        C_h            5.00    12.01070     C ( 1.00)
        C              4.00    12.01070     C ( 1.00)

     No symmetry found

   Cartesian axes

     site n.     atom                  positions (alat units)
         1           Cu  tau(   1) = (  -0.0000549   0.0038944   0.8895039  )
         2           Cu  tau(   2) = (   0.2498561   0.2364069   0.8931545  )
         3           Cu  tau(   3) = (   0.4999834   0.0040272   0.8891076  )
         4           Cu  tau(   4) = (   0.7500655   0.2365774   0.8930538  )
         5           Cu  tau(   5) = (  -0.0000562   0.4680485   0.8986857  )
         6           Cu  tau(   6) = (   0.2499204   0.6979601   0.9023997  )
         7           Cu  tau(   7) = (   0.4999770   0.4680600   0.8986438  )
         8           Cu  tau(   8) = (   0.7499919   0.6979170   0.9024188  )
         9           Cu  tau(   9) = (  -0.0000103   0.9272203   0.9035556  )
        10           Cu  tau(  10) = (   0.2499589   1.1564729   0.9037066  )
        11           Cu  tau(  11) = (   0.4999145   0.9271629   0.9034395  )
        12           Cu  tau(  12) = (   0.7499463   1.1564243   0.9036188  )
        13           Cu  tau(  13) = (  -0.0001139   1.3860246   0.9027183  )
        14           Cu  tau(  14) = (   0.2498801   1.6163418   0.8986746  )
        15           Cu  tau(  15) = (   0.5000280   1.3859803   0.9024834  )
        16           Cu  tau(  16) = (   0.7500312   1.6160597   0.8985479  )
        17           Cu  tau(  17) = (   0.0000423   1.8478793   0.8927838  )
        18           Cu  tau(  18) = (   0.2500275   2.0802463   0.8891797  )
        19           Cu  tau(  19) = (   0.4998824   1.8476458   0.8930400  )
        20           Cu  tau(  20) = (   0.7499023   2.0802466   0.8892023  )
        21           Cu  tau(  21) = (  -0.0000006   0.2314407   1.1418707  )
        22           Cu  tau(  22) = (   0.2498892   0.0016921   1.1383038  )
        23           Cu  tau(  23) = (   0.4999305   0.2313254   1.1417344  )
        24           Cu  tau(  24) = (   0.7500314   0.0017233   1.1384329  )
        25           Cu  tau(  25) = (  -0.0000709   0.6957747   1.1517252  )
        26           Cu  tau(  26) = (   0.2500244   0.4632860   1.1474081  )
        27           Cu  tau(  27) = (   0.4999876   0.6957836   1.1516684  )
        28           Cu  tau(  28) = (   0.7498984   0.4632432   1.1473117  )
        29           Cu  tau(  29) = (  -0.0000630   1.1568679   1.1543012  )
        30           Cu  tau(  30) = (   0.2499277   0.9268448   1.1543638  )
        31           Cu  tau(  31) = (   0.4999724   1.1568693   1.1541867  )
        32           Cu  tau(  32) = (   0.7500027   0.9269784   1.1543223  )
        33           Cu  tau(  33) = (  -0.0000082   1.6210599   1.1470060  )
        34           Cu  tau(  34) = (   0.2498596   1.3881448   1.1514236  )
        35           Cu  tau(  35) = (   0.4999174   1.6209561   1.1473344  )
        36           Cu  tau(  36) = (   0.7500490   1.3882920   1.1514093  )
        37           Cu  tau(  37) = (  -0.0001368   2.0821940   1.1384383  )
        38           Cu  tau(  38) = (   0.2500917   1.8528039   1.1417247  )
        39           Cu  tau(  39) = (   0.5000439   2.0824138   1.1382179  )
        40           Cu  tau(  40) = (   0.7498259   1.8528944   1.1417626  )
        41           Cu  tau(  41) = (  -0.0001378   0.0006883   1.3919862  )
        42           Cu  tau(  42) = (   0.2499845   0.2287190   1.3929011  )
        43           Cu  tau(  43) = (   0.5000483   0.0010692   1.3920855  )
        44           Cu  tau(  44) = (   0.7499379   0.2286829   1.3928022  )
        45           Cu  tau(  45) = (   0.0000062   0.4584630   1.3955340  )
        46           Cu  tau(  46) = (   0.2499963   0.6914661   1.3999671  )
        47           Cu  tau(  47) = (   0.4999185   0.4580848   1.3951344  )
        48           Cu  tau(  48) = (   0.7499533   0.6912121   1.4000695  )
        49           Cu  tau(  49) = (  -0.0000360   0.9252124   1.4043059  )
        50           Cu  tau(  50) = (   0.2499282   1.1590389   1.4037961  )
        51           Cu  tau(  51) = (   0.4999469   0.9251753   1.4044409  )
        52           Cu  tau(  52) = (   0.7500253   1.1590458   1.4042624  )
        53           Cu  tau(  53) = (  -0.0000739   1.3928481   1.3993409  )
        54           Cu  tau(  54) = (   0.2500691   1.6257625   1.3946926  )
        55           Cu  tau(  55) = (   0.4999884   1.3926344   1.3994945  )
        56           Cu  tau(  56) = (   0.7498314   1.6259215   1.3947318  )
        57           Cu  tau(  57) = (  -0.0000489   1.8554057   1.3928460  )
        58           Cu  tau(  58) = (   0.2499235   2.0832681   1.3919605  )
        59           Cu  tau(  59) = (   0.4999390   1.8556516   1.3922941  )
        60           Cu  tau(  60) = (   0.7499778   2.0829845   1.3920999  )
[...]
       110           C   tau( 110) = (   0.0000930   0.2823830   2.4180114  )
       111           C   tau( 111) = (   0.1666773  -0.0064510   2.3996578  )
       112           C   tau( 112) = (   0.1668787   0.3782408   2.4277671  )
       113           C   tau( 113) = (   0.3333089   0.0900211   2.4026227  )
       114           C   tau( 114) = (   0.3334028   0.2822316   2.4161361  )
       115           C   tau( 115) = (   0.5000830  -0.0063283   2.3982863  )
       116           C   tau( 116) = (   0.5000767   0.3780919   2.4227795  )
       117           C   tau( 117) = (   0.6669041   0.0900346   2.4025061  )
       118           C   tau( 118) = (   0.6667952   0.2822435   2.4160878  )
       119           C   tau( 119) = (   0.8334865  -0.0064471   2.3995724  )
       120           C   tau( 120) = (   0.8332736   0.3782539   2.4277003  )
       121           C   tau( 121) = (   0.0000735   0.6670179   2.4604097  )
       122           C   tau( 122) = (   0.0001050   0.8588633   2.4907114  )
       123           C   tau( 123) = (   0.1672571   0.5698504   2.4498428  )
       124           C   tau( 124) = (   0.1665971   0.9552497   2.4963875  )
       125           C_h tau( 125) = (   0.3330385   0.6665151   2.4637668  )
       126           C   tau( 126) = (   0.3335343   0.8585536   2.4894103  )
       127           C   tau( 127) = (   0.5001160   0.5707969   2.4446470  )
       128           C   tau( 128) = (   0.5000868   0.9548012   2.4981070  )
       129           C   tau( 129) = (   0.6671111   0.6664905   2.4640110  )
       130           C   tau( 130) = (   0.6666802   0.8585370   2.4895177  )
       131           C   tau( 131) = (   0.8329626   0.5698624   2.4498385  )
       132           C   tau( 132) = (   0.8335464   0.9552517   2.4962856  )
       133           C   tau( 133) = (   0.0000911   1.2451825   2.4876213  )
       134           C   tau( 134) = (   0.0001131   1.4371710   2.4617966  )
       135           C   tau( 135) = (   0.1670675   1.1488169   2.4970265  )
       136           C   tau( 136) = (   0.1662741   1.5330753   2.4437487  )
       137           C   tau( 137) = (   0.3332653   1.2449196   2.4879988  )
       138           C   tau( 138) = (   0.3337767   1.4368407   2.4576005  )
       139           C   tau( 139) = (   0.5001230   1.1482862   2.4940804  )
       140           C   tau( 140) = (   0.5000809   1.5342903   2.4464359  )
       141           C   tau( 141) = (   0.6669118   1.2449151   2.4881715  )
       142           C   tau( 142) = (   0.6664409   1.4368275   2.4575860  )
       143           C   tau( 143) = (   0.8331701   1.1488111   2.4971678  )
       144           C   tau( 144) = (   0.8339073   1.5330595   2.4436703  )
       145           C   tau( 145) = (   0.0001003   1.8211673   2.4126494  )
       146           C   tau( 146) = (   0.0000762   2.0135533   2.4010454  )
       147           C   tau( 147) = (   0.1666886   1.7253778   2.4216854  )
       148           C   tau( 148) = (   0.1666494   2.1103073   2.3983956  )
       149           C   tau( 149) = (   0.3333114   1.8216121   2.4144844  )
       150           C   tau( 150) = (   0.3333631   2.0140026   2.4017749  )
       151           C   tau( 151) = (   0.5000809   1.7256607   2.4249251  )
       152           C   tau( 152) = (   0.5001229   2.1104737   2.3992384  )
       153           C   tau( 153) = (   0.6668851   1.8216063   2.4144419  )
       154           C   tau( 154) = (   0.6667882   2.0139890   2.4016302  )
       155           C   tau( 155) = (   0.8334653   1.7253669   2.4216510  )
       156           C   tau( 156) = (   0.8335837   2.1103089   2.3982893  )

     number of k points=     6  gaussian smearing, width (Ry)=  0.1000
                       cart. coord. in units 2pi/alat
        k(    1) = (   0.0000000   0.0000000   0.0000000), wk =   0.2500000
        k(    2) = (   0.0000000  -0.2165064   0.0000000), wk =   0.2500000
        k(    3) = (   0.2500000   0.0000000   0.0000000), wk =   0.5000000
        k(    4) = (   0.2500000  -0.2165064   0.0000000), wk =   0.5000000
        k(    5) = (  -0.5000000   0.0000000   0.0000000), wk =   0.2500000
        k(    6) = (  -0.5000000  -0.2165064   0.0000000), wk =   0.2500000

     Largest allocated arrays     est. size (Mb)     dimensions
     Largest temporary arrays     est. size (Mb)     dimensions

     Initial potential from superposition of free atoms
     Check: negative starting charge=   -0.001553

     starting charge 1354.72292, renormalised to 1380.00000

     negative rho (up, down):  1.582E-03 0.000E+00
     Starting wfc are 1356 randomized atomic wfcs

     Self-consistent Calculation

     iteration #  1     ecut=    80.00 Ry     beta=0.70
     Davidson diagonalization with overlap
     c_bands:  3 eigenvalues not converged
     c_bands:  1 eigenvalues not converged
     c_bands:  4 eigenvalues not converged
     c_bands:  4 eigenvalues not converged
     c_bands:  3 eigenvalues not converged
     ethr =  1.00E-04,  avg # of iterations = 45.3

     negative rho (up, down):  2.549E+01 0.000E+00

     total energy              =  -10766.11763928 Ry
     Harris-Foulkes estimate   =  -19025.37759953 Ry
     estimated scf accuracy    <  214618.26304130 Ry

     iteration #  2     ecut=    80.00 Ry     beta=0.70
     Davidson diagonalization with overlap
     ethr =  1.00E-02,  avg # of iterations = 14.5

[...]

     iteration # 40     ecut=    80.00 Ry     beta=0.70
     Davidson diagonalization with overlap
     c_bands:  1 eigenvalues not converged
     ethr =  1.61E-09,  avg # of iterations =  8.5

[...]

     total energy              =  -13679.27130549 Ry
     Harris-Foulkes estimate   =  -13679.27130545 Ry
     estimated scf accuracy    <       0.00000002 Ry

     iteration # 47     ecut=    80.00 Ry     beta=0.70
     Davidson diagonalization with overlap
     ethr =  1.39E-12,  avg # of iterations =  2.5

     negative rho (up, down):  1.713E-03 0.000E+00

     End of self-consistent calculation

          k = 0.0000 0.0000 0.0000 (256287 PWs)   bands (ev):

   -16.7130 -15.6178 -15.3686 -14.7811 -14.3993 -14.1903 -14.1179 -13.6468
   -13.5787 -13.4195 -13.3948 -12.8072 -12.6825 -12.4997 -12.4773 -12.4461
   -12.4236 -11.0355 -10.8953 -10.8503 -10.7530 -10.6086  -9.7049  -9.1658
    -9.1542  -8.9990  -8.9215  -8.3438  -8.1677  -7.9879  -7.9557  -7.4549
    -7.2268  -7.1364  -7.0092  -6.9324  -6.9277  -6.8772  -6.8762  -5.7241
    -5.7210  -5.4925  -5.4145  -5.3875  -5.3143  -5.2840  -5.2519  -5.2200
    -4.9691  -4.8648  -4.8005  -4.4078  -4.2202  -4.1543  -4.1154  -4.0613
    -3.9181  -3.8396  -3.7779  -3.4950  -3.3964  -3.3668  -3.3626  -3.3361
    -3.0417  -3.0241  -2.9761  -2.9512  -2.8427  -2.8180  -2.8146  -2.7943
    -2.7731  -2.6457  -2.5617  -2.4959  -2.4617  -2.4327  -2.4100  -2.3838
    -2.3832  -2.3419  -2.3208  -2.3002  -2.2920  -2.2636  -2.1566  -2.1463
    -2.0887  -2.0580  -2.0393  -1.9502  -1.8572  -1.7884  -1.7462  -1.7445
    -1.6980  -1.6932  -1.6413  -1.5869  -1.5813  -1.5288  -1.5282  -1.5183
    -1.5176  -1.5046  -1.4525  -1.4282  -1.4270  -1.3917  -1.3914  -1.3796
    -1.3670  -1.2981  -1.2754  -1.2523  -1.2369  -1.2358  -1.1610  -1.1567
    -1.1556  -1.1499  -1.1382  -1.1119  -1.1106  -1.0896  -1.0425  -1.0384
    -1.0367  -1.0342  -1.0018  -0.9789  -0.9579  -0.9575  -0.9552  -0.9327
    -0.9303  -0.9160  -0.9115  -0.9019  -0.8629  -0.8620  -0.8110  -0.8044
    -0.8009  -0.7875  -0.7400  -0.7365  -0.7062  -0.6866  -0.6705  -0.6573
    -0.6396  -0.6375  -0.6276  -0.6000  -0.5979  -0.5906  -0.5809  -0.5731
    -0.5674  -0.5624  -0.5574  -0.5237  -0.5214  -0.5052  -0.4874  -0.4795
    -0.4584  -0.4579  -0.4504  -0.4472  -0.4460  -0.4384  -0.4304  -0.4282
    -0.4252  -0.4234  -0.4064  -0.3847  -0.3777  -0.3689  -0.3637  -0.3530
    -0.3486  -0.3393  -0.3378  -0.3279  -0.3272  -0.3252  -0.3184  -0.3140
    -0.2976  -0.2829  -0.2810  -0.2797  -0.2684  -0.2649  -0.2539  -0.2535
    -0.2336  -0.2320  -0.2313  -0.2283  -0.2248  -0.2217  -0.2199  -0.2075
    -0.1978  -0.1921  -0.1542  -0.1444  -0.1365  -0.1184  -0.1113  -0.0975
    -0.0695  -0.0654  -0.0644  -0.0558  -0.0539  -0.0458  -0.0429  -0.0364
    -0.0236  -0.0209  -0.0086  -0.0070  -0.0057   0.0026   0.0105   0.0241
     0.0258   0.0266   0.0395   0.0417   0.0419   0.0782   0.0799   0.0865
     0.1110   0.1273   0.1363   0.1375   0.1432   0.1439   0.1649   0.1657
     0.1712   0.1756   0.1955   0.1963   0.1966   0.2070   0.2076   0.2093
     0.2097   0.2120   0.2157   0.2300   0.2404   0.2438   0.2508   0.2559
     0.2562   0.2598   0.2607   0.2787   0.2829   0.2924   0.2925   0.3001
     0.3157   0.3159   0.3281   0.3290   0.3291   0.3336   0.3346   0.3467
     0.3471   0.3553   0.3577   0.3649   0.3685   0.3691   0.3744   0.3745
     0.3876   0.3877   0.4093   0.4118   0.4146   0.4163   0.4208   0.4209
     0.4222   0.4230   0.4285   0.4294   0.4574   0.4620   0.4623   0.4660
     0.4864   0.4876   0.5115   0.5125   0.5137   0.5157   0.5223   0.5365
     0.5373   0.5442   0.5499   0.5508   0.5509   0.5547   0.5548   0.5768
     0.5820   0.5831   0.5871   0.5908   0.5913   0.5985   0.6115   0.6137
     0.6144   0.6210   0.6212   0.6361   0.6380   0.6416   0.6436   0.6466
     0.6477   0.6503   0.6534   0.6571   0.6703   0.6705   0.6746   0.6756
     0.6765   0.6797   0.6817   0.6931   0.7184   0.7200   0.7354   0.7518
     0.7519   0.7667   0.7715   0.7759   0.7771   0.7783   0.7827   0.8054
     0.8068   0.8269   0.8269   0.8355   0.8405   0.8411   0.8425   0.8532
     0.8543   0.8649   0.8903   0.8955   0.8966   0.8972   0.9003   0.9045
     0.9060   0.9305   0.9324   0.9406   0.9453   0.9463   0.9520   0.9593
     0.9614   0.9889   0.9910   0.9988   1.0081   1.0086   1.0138   1.0155
     1.0168   1.0197   1.0234   1.0338   1.0350   1.0379   1.0397   1.0457
     1.0672   1.0692   1.0743   1.0768   1.0806   1.0921   1.0974   1.1015
     1.1375   1.1418   1.1430   1.1528   1.1558   1.1567   1.1590   1.1629
     1.1649   1.1661   1.1722   1.1773   1.1818   1.1899   1.1905   1.1919
     1.1984   1.2015   1.2019   1.2109   1.2143   1.2216   1.2275   1.2289
     1.2333   1.2349   1.2422   1.2462   1.2493   1.2552   1.2627   1.2634
     1.2697   1.2759   1.2803   1.2836   1.2838   1.2851   1.2875   1.2894
     1.2913   1.3030   1.3147   1.3219   1.3273   1.3287   1.3299   1.3318
     1.3331   1.3347   1.3420   1.3465   1.3469   1.3529   1.3581   1.3586
     1.3622   1.3701   1.3748   1.3759   1.3797   1.3857   1.3896   1.3933
     1.3984   1.4029   1.4116   1.4315   1.4347   1.4377   1.4461   1.4493
[...]
     4.6089   4.6106   4.9210   5.0048   5.0164   5.0325   5.0759   5.1871
     5.3260   5.4021   5.4854   5.5071   5.5426   5.5616   5.6507   5.6630
     5.7946   5.9054   6.0966   6.1162   6.2853   6.3316   6.3605   6.4691
     6.5071   6.8004   6.8090   6.8163   6.8368   6.8414   7.0391   7.0600
     7.0780   7.1721   7.2654   7.2963   7.3082   7.3862   7.3972   7.4068
     7.4071   7.4193   7.4359   7.4462   7.5240   7.6850   7.6883   7.7174
     7.8465   7.9223   7.9407   8.0085   8.0948   8.1103   8.1596   8.2732
     8.2888   8.3028   8.3041   8.5610   8.5786   8.5788   8.6403   8.6623
     8.6846   8.7070   8.7300   8.7960   8.8191   8.8560   8.9011   8.9108
     8.9254   9.0078   9.0638   9.1195   9.1353   9.1447   9.1520   9.1991
     9.2003   9.2891   9.2977   9.2991   9.3028   9.3306   9.3387   9.3498
     9.3785   9.5158   9.5654   9.6893   9.7024   9.7568   9.8101   9.8161
     9.8405   9.9557  10.0226  10.0470  10.0805  10.0817  10.0876  10.3313
    10.3767  10.4183  10.4784  10.5050  10.5140  10.5410  10.5852  10.5928
    10.6119  10.6228  10.6357  10.6441

[...]

          k = 0.2500-0.2165 0.0000 (256316 PWs)   bands (ev):

[...]

          k =-0.5000 0.0000 0.0000 (256496 PWs)   bands (ev):

[...]

          k =-0.5000-0.2165 0.0000 (256328 PWs)   bands (ev):

   -16.5978 -15.4141 -15.1801 -15.1151 -14.6977 -14.5428 -14.5024 -14.4383
   -13.4108 -13.1822 -13.0867 -13.0161 -12.1174 -11.8658 -11.3958 -11.3504
   -11.2785 -11.1032 -11.0831 -10.9332 -10.8951 -10.8815 -10.7371 -10.6798
    -9.4679  -9.3838  -9.0897  -9.0867  -8.6150  -8.2654  -8.1937  -8.1197
    -7.6640  -7.6574  -7.3656  -7.3370  -5.9363  -5.7379  -5.5189  -5.3549
    -5.2230  -5.0595  -4.7789  -4.6862  -4.6703  -4.6368  -4.6072  -4.5885
    -4.5540  -4.5491  -4.4948  -4.3500  -4.3087  -4.0173  -3.8447  -3.8134
    -3.6977  -3.6370  -3.6212  -3.5996  -3.5772  -3.5613  -3.5546  -3.5356
    -3.5295  -3.5206  -3.4854  -3.4344  -3.3488  -3.2942  -3.1191  -3.1033
    -3.0939  -3.0676  -2.9218  -2.9103  -2.8221  -2.8018  -2.7938  -2.7876
    -2.6665  -2.5616  -2.5462  -2.4834  -2.3742  -2.3636  -2.0897  -2.0826
    -2.0429  -1.9648  -1.9573  -1.9566  -1.9549  -1.9538  -1.8258  -1.7727
    -1.7017  -1.6752  -1.6421  -1.6382  -1.5556  -1.5297  -1.4864  -1.4786
    -1.4675  -1.4643  -1.4243  -1.3600  -1.3356  -1.2317  -1.2282  -1.1981
    -1.1960  -1.1873  -1.1850  -1.1426  -1.1221  -1.1167  -1.0547  -1.0004
    -0.9762  -0.9742  -0.9722  -0.9024  -0.8754  -0.8724  -0.8697  -0.8681
    -0.8383  -0.8289  -0.8276  -0.8242  -0.8237  -0.8230  -0.8200  -0.8130
    -0.8119  -0.8095  -0.7842  -0.7816  -0.7777  -0.7771  -0.7576  -0.7568
    -0.7562  -0.7540  -0.7456  -0.7447  -0.7421  -0.7414  -0.7027  -0.6995
    -0.6715  -0.6351  -0.6337  -0.6297  -0.6203  -0.6025  -0.5966  -0.5890
    -0.5873  -0.5767  -0.5758  -0.5583  -0.5512  -0.5472  -0.5406  -0.5246
    -0.5240  -0.5207  -0.5195  -0.5135  -0.5090  -0.5063  -0.5035  -0.5001
    -0.4939  -0.4917  -0.4789  -0.4636  -0.4601  -0.4571  -0.4409  -0.4406
    -0.4373  -0.4351  -0.4246  -0.4163  -0.4155  -0.4151  -0.4054  -0.3831
    -0.3724  -0.3701  -0.3658  -0.3612  -0.3212  -0.3196  -0.3162  -0.3133
    -0.2609  -0.2593  -0.2513  -0.2345  -0.2306  -0.2108  -0.2088  -0.2017
    -0.2005  -0.1606  -0.1598  -0.1465  -0.1457  -0.1452  -0.1438  -0.1337
    -0.1310  -0.1222  -0.1172  -0.0989  -0.0965  -0.0864  -0.0839  -0.0785
    -0.0743  -0.0652  -0.0644  -0.0599  -0.0559   0.0137   0.0214   0.0247
     0.0403   0.0412   0.0569   0.0644   0.0659   0.0687   0.0741   0.0768
     0.0777   0.1029   0.1157   0.1184   0.1201   0.1209   0.1401   0.1591
     0.1657   0.1677   0.1679   0.1694   0.1703   0.1714   0.1762   0.2040
     0.2068   0.2149   0.2208   0.2330   0.2374   0.2393   0.2508   0.2753
     0.2880   0.3079   0.3152   0.3239   0.3263   0.3395   0.3408   0.3417
     0.3444   0.3462   0.3492   0.3562   0.3575   0.3614   0.3633   0.3648
     0.3743   0.3778   0.3879   0.4254   0.4271   0.4314   0.4325   0.4334
     0.4400   0.4410   0.4451   0.4678   0.4734   0.4772   0.4814   0.4829
     0.4853   0.4862   0.4867   0.4891   0.4906   0.4912   0.4959   0.5144
     0.5155   0.5269   0.5342   0.5381   0.5433   0.5511   0.5632   0.5665
     0.5812   0.5924   0.6009   0.6024   0.6074   0.6183   0.6258   0.6313
     0.6369   0.6385   0.6387   0.6390   0.6477   0.6575   0.6636   0.6647
     0.6668   0.6704   0.6784   0.6809   0.6930   0.6941   0.6958   0.6962
     0.6982   0.6984   0.7042   0.7062   0.7095   0.7118   0.7147   0.7157
     0.7275   0.7330   0.7382   0.7410   0.7418   0.7432   0.7448   0.7452
     0.7543   0.7555   0.7694   0.7830   0.8021   0.8059   0.8073   0.8124
     0.8176   0.8194   0.8207   0.8216   0.8267   0.8482   0.8502   0.8513
     0.8536   0.8605   0.8692   0.8720   0.8820   0.8860   0.8951   0.9043
     0.9080   0.9195   0.9361   0.9390   0.9427   0.9513   0.9606   0.9609
     0.9630   0.9683   0.9741   0.9768   0.9915   0.9916   0.9965   0.9973
     0.9992   1.0079   1.0090   1.0140   1.0145   1.0229   1.0235   1.0320
     1.0349   1.0373   1.0396   1.0481   1.0534   1.0571   1.0609   1.0671
     1.0710   1.0732   1.0803   1.0838   1.0850   1.0893   1.0985   1.1003
     1.1066   1.1071   1.1160   1.1265   1.1363   1.1388   1.1411   1.1521
     1.1580   1.1610   1.1645   1.1706   1.1735   1.1752   1.1767   1.1933
     1.2008   1.2049   1.2055   1.2065   1.2090   1.2210   1.2222   1.2248
     1.2249   1.2260   1.2320   1.2334   1.2354   1.2359   1.2486   1.2577
     1.2640   1.2665   1.2742   1.2750   1.2830   1.2845   1.2848   1.2943
     1.2999   1.3056   1.3105   1.3133   1.3170   1.3216   1.3242   1.3261
     1.3300   1.3347   1.3393   1.3402   1.3441   1.3490   1.3594   1.3602
     1.3666   1.3742   1.3789   1.3804   1.3863   1.3879   1.3890   1.3918
[...]
     5.1360   5.1909   5.2117   5.2363   5.2379   5.2781   5.3391   5.3945
     5.3991   5.4867   5.4968   5.5633   5.5965   5.6199   5.6272   5.6321
     5.6510   5.6882   5.7367   5.7398   5.7954   5.8648   6.0308   6.0492
     6.0558   6.0636   6.1204   6.1484   6.1645   6.1819   6.3572   6.3754
     6.3959   6.4053   6.4486   6.4931   6.7664   6.7914   6.8185   6.8240
     7.1722   7.1849   7.2675   7.2705   7.4791   7.4957   7.4982   7.5082
     7.5769   7.5806   7.7241   7.7298   7.7335   7.7388   7.9359   7.9364
     7.9394   7.9397   8.0691   8.1163   8.1530   8.1932   8.1996   8.3748
     8.4072   8.4799   8.4964   8.5505   8.6019   8.6266   8.6349   8.6380
     8.6715   8.6744   8.8604   8.8886   8.9410   8.9660   9.0190   9.0201
     9.2217   9.2291   9.2810   9.3001   9.4115   9.4122   9.4141   9.4154
     9.5016   9.5043   9.5154   9.5178   9.5861   9.5913   9.6029   9.6037
     9.6207   9.6272   9.6565   9.6659   9.7192   9.7305   9.9482   9.9796
    10.0323  10.0495  10.2636  10.2711  10.2775  10.2814  10.3500  10.3599
    10.5126  10.5171  10.5285  10.5337

     the Fermi energy is     3.9154 ev

!    total energy              =  -13679.27130553 Ry
     Harris-Foulkes estimate   =  -13679.27130549 Ry
     estimated scf accuracy    <          5.1E-09 Ry

     The total energy is the sum of the following terms:

     one-electron contribution = -106321.59706279 Ry
     hartree contribution      =   54656.11867626 Ry
     xc contribution           =   -4789.50205991 Ry
     ewald contribution        =   42782.41811942 Ry
     Dispersion Correction     =      -3.10053462 Ry
     smearing contrib. (-TS)   =      -3.60844390 Ry

     convergence has been achieved in  47 iterations

     Writing output data file gc.save

     General routines

     Parallel routines

   This run was terminated on:  17:23:47  20Apr2017

   JOB DONE.