     Program PWSCF v.5.4.0 starts on  1Oct2017 at  0:20:25

     Current dimensions of program PWSCF are:
     Max number of different atomic species (ntypx) = 10
     Max number of k-points (npk) =  40000
     Max angular momentum in pseudopotentials (lmaxx) =  3
     WARNING: atomic wfc #  2 for atom type 4 has zero norm
     WARNING: atomic wfc #  4 for atom type 4 has zero norm
     WARNING: atomic wfc #  5 for atom type 4 has zero norm

     Parameters for Dispersion Correction:
       atom      VdW radius       C_6

        Cu         2.952        374.666
        C_h        2.744         60.710
        C          2.744         60.710
        O          2.536         24.284

     bravais-lattice index     =            0
     lattice parameter (alat)  =      13.9425  a.u.
     unit-cell volume          =   21209.0878 (a.u.)^3
     number of atoms/cell      =          150
     number of atomic types    =            4
     number of electrons       =      1302.00
     number of Kohn-Sham states=          781
     kinetic-energy cutoff     =      80.0000  Ry
     charge density cutoff     =     320.0000  Ry
     convergence threshold     =      1.0E-08
     mixing beta               =       0.7000
     number of iterations used =            8  local-TF  mixing
     Exchange-correlation      =  SLA  PW   PBX  PBC ( 1  4  3  4 0 0)

     celldm(1)=  13.942539  celldm(2)=   0.000000  celldm(3)=   0.000000
     celldm(4)=   0.000000  celldm(5)=   0.000000  celldm(6)=   0.000000

     crystal axes: (cart. coord. in units of alat)
               a(1) = (   1.000000   0.000000   0.000000 )
               a(2) = (   0.000000   2.309401   0.000000 )
               a(3) = (   0.000000   0.000000   3.388418 )

     reciprocal axes: (cart. coord. in units 2 pi/alat)
               b(1) = (  1.000000  0.000000  0.000000 )
               b(2) = (  0.000000  0.433013  0.000000 )
               b(3) = (  0.000000  0.000000  0.295123 )

     PseudoPot. # 1 for Cu read from file:
     /home/549/hxw549/Short/pseudopotentials/Cu.pbe-n-van_ak.UPF
     MD5 check sum: 601f7c30f7467666bec936e0661ce3e1
     Pseudo is Ultrasoft + core correction, Zval = 11.0
     Generated by new atomic code, or converted to UPF format
     Using radial grid of  867 points,  6 beta functions with:
                l(1) =   0
                l(2) =   0
                l(3) =   1
                l(4) =   1
                l(5) =   2
                l(6) =   2
     Q(r) pseudized with  8 coefficients,  rinner =    1.400   1.400   1.400
                                                       1.400   1.400

     PseudoPot. # 2 for C  read from file:
     /home/549/hxw549/Short/pseudopotentials/C.star1s-pbe-mt_gipaw.UPF
     MD5 check sum: ef0cb3dee31bd9e4ba2a832a2c716264
     Pseudo is Norm-conserving, Zval =  5.0
     Generated by new atomic code, or converted to UPF format
     Using radial grid of 1073 points,  1 beta functions with:
                l(1) =   0

     PseudoPot. # 3 for C  read from file:
     /home/549/hxw549/Short/pseudopotentials/C.pbe-mt_gipaw.UPF
     MD5 check sum: 5ac2f21f2c440b14befe521540822c15
     Pseudo is Norm-conserving, Zval =  4.0
     Generated by new atomic code, or converted to UPF format
     Using radial grid of 1073 points,  1 beta functions with:
                l(1) =   0

     PseudoPot. # 4 for O  read from file:
     /home/549/hxw549/Short/pseudopotentials/O.pbe-van_gipaw.UPF
     MD5 check sum: 5ce2a047509d4f331db576c963e74b29
     Pseudo is Ultrasoft, Zval =  6.0
     Generated by new atomic code, or converted to UPF format
     Using radial grid of 1095 points,  4 beta functions with:
                l(1) =   0
                l(2) =   0
                l(3) =   1
                l(4) =   1
     Q(r) pseudized with 0 coefficients

     atomic species   valence    mass     pseudopotential
        Cu            11.00    63.54600     Cu( 1.00)
        C_h            5.00    12.01070     C ( 1.00)
        C              4.00    12.01070     C ( 1.00)
        O              6.00    15.99940     O ( 1.00)

     No symmetry found

   Cartesian axes

     site n.     atom                  positions (alat units)
         1           Cu  tau(   1) = (   0.0007746  -0.0017263   0.9974341  )
         2           Cu  tau(   2) = (   0.2507737   0.2258138   0.9973260  )
         3           Cu  tau(   3) = (   0.5008760  -0.0022365   0.9966779  )
         4           Cu  tau(   4) = (   0.7508471   0.2263841   0.9980016  )
         5           Cu  tau(   5) = (   0.0008392   0.4565406   0.9985792  )
         6           Cu  tau(   6) = (   0.2509427   0.6897855   0.9999657  )
         7           Cu  tau(   7) = (   0.5008379   0.4568514   0.9990575  )
         8           Cu  tau(   8) = (   0.7507194   0.6897031   0.9999838  )
         9           Cu  tau(   9) = (   0.0006685   0.9241902   1.0001491  )
        10           Cu  tau(  10) = (   0.2508199   1.1585893   0.9994315  )
        11           Cu  tau(  11) = (   0.5008540   0.9240586   1.0006399  )
        12           Cu  tau(  12) = (   0.7507433   1.1584370   0.9997064  )
        13           Cu  tau(  13) = (   0.0007724   1.3915619   0.9981007  )
        14           Cu  tau(  14) = (   0.2507485   1.6225299   0.9965829  )
        15           Cu  tau(  15) = (   0.5008122   1.3916616   0.9979961  )
        16           Cu  tau(  16) = (   0.7508119   1.6227756   0.9965609  )
        17           Cu  tau(  17) = (   0.0009883   1.8518082   0.9959401  )
        18           Cu  tau(  18) = (   0.2507237   2.0803995   0.9968330  )
        19           Cu  tau(  19) = (   0.5006394   1.8518782   0.9959625  )
        20           Cu  tau(  20) = (   0.7509541   2.0796587   0.9956860  )
        21           Cu  tau(  21) = (   0.0010190   0.2258085   1.2493909  )
        22           Cu  tau(  22) = (   0.2504775  -0.0015663   1.2511192  )
        23           Cu  tau(  23) = (   0.5007592   0.2244625   1.2474139  )
        24           Cu  tau(  24) = (   0.7511204  -0.0032534   1.2489893  )
        25           Cu  tau(  25) = (   0.0011318   0.6883266   1.2442935  )
        26           Cu  tau(  26) = (   0.2506634   0.4550101   1.2457739  )
        27           Cu  tau(  27) = (   0.5010434   0.6889459   1.2455869  )
        28           Cu  tau(  28) = (   0.7513247   0.4551755   1.2463317  )
        29           Cu  tau(  29) = (   0.0009417   1.1597158   1.2443880  )
        30           Cu  tau(  30) = (   0.2512312   0.9241298   1.2444880  )
        31           Cu  tau(  31) = (   0.5007499   1.1593901   1.2450686  )
        32           Cu  tau(  32) = (   0.7508296   0.9240397   1.2450130  )
        33           Cu  tau(  33) = (   0.0007793   1.6243336   1.2463775  )
        34           Cu  tau(  34) = (   0.2504282   1.3930798   1.2451551  )
        35           Cu  tau(  35) = (   0.5008090   1.6252398   1.2451280  )
        36           Cu  tau(  36) = (   0.7512192   1.3936504   1.2446248  )
        37           Cu  tau(  37) = (   0.0010877   2.0797516   1.2492188  )
        38           Cu  tau(  38) = (   0.2507223   1.8528469   1.2475014  )
        39           Cu  tau(  39) = (   0.5004398   2.0799192   1.2488390  )
        40           Cu  tau(  40) = (   0.7508180   1.8531203   1.2475507  )
        41           Cu  tau(  41) = (   0.0016658  -0.0022985   1.5045196  )
        42           Cu  tau(  42) = (   0.2503972   0.2291600   1.5050437  )
        43           Cu  tau(  43) = (   0.5000117  -0.0022562   1.5036487  )
        44           Cu  tau(  44) = (   0.7517889   0.2249026   1.5000298  )
        45           Cu  tau(  45) = (   0.0021806   0.4573907   1.4979107  )
        46           Cu  tau(  46) = (   0.2515336   0.6876551   1.4914913  )
        47           Cu  tau(  47) = (   0.5009200   0.4538841   1.4935295  )
        48           Cu  tau(  48) = (   0.7528141   0.6875879   1.4907110  )
        49           Cu  tau(  49) = (   0.0033450   0.9232828   1.4888842  )
        50           Cu  tau(  50) = (   0.2503503   1.1598614   1.4909692  )
        51           Cu  tau(  51) = (   0.5011269   0.9241898   1.4909779  )
        52           Cu  tau(  52) = (   0.7519249   1.1613568   1.4891627  )
        53           Cu  tau(  53) = (   0.0011131   1.3942307   1.4938872  )
        54           Cu  tau(  54) = (   0.2503927   1.6255964   1.4976503  )
        55           Cu  tau(  55) = (   0.5006234   1.3972544   1.4901219  )
        56           Cu  tau(  56) = (   0.7512735   1.6255407   1.4977139  )
        57           Cu  tau(  57) = (   0.0005637   1.8528289   1.5024635  )
        58           Cu  tau(  58) = (   0.2506219   2.0792198   1.5045906  )
        59           Cu  tau(  59) = (   0.5009250   1.8529925   1.5021785  )
        60           Cu  tau(  60) = (   0.7508082   2.0800280   1.5044375  )
[...]
       103           C   tau( 103) = (   0.1667510   0.0039812   2.4555312  )
       104           C   tau( 104) = (   0.1667002   0.3869974   2.5272644  )
       105           C   tau( 105) = (   0.3333424   0.1007420   2.4699883  )
       106           C   tau( 106) = (   0.3334363   0.2919992   2.5051734  )
       107           C   tau( 107) = (   0.5000066   0.0039836   2.4560683  )
       108           C   tau( 108) = (   0.4999469   0.3882212   2.5232037  )
       109           C   tau( 109) = (   0.6666958   0.1005847   2.4714172  )
       110           C   tau( 110) = (   0.6665358   0.2920099   2.5054082  )
       111           C   tau( 111) = (   0.8332310   0.0038601   2.4560699  )
       112           C   tau( 112) = (   0.8332509   0.3869252   2.5270840  )
       113           C   tau( 113) = (  -0.0001934   0.6737688   2.5777695  )
       114           C   tau( 114) = (  -0.0001856   0.8672651   2.5944491  )
       115           C   tau( 115) = (   0.1667594   0.5776866   2.5647008  )
       116           C   tau( 116) = (   0.1666435   0.9646073   2.6006922  )
       117           C   tau( 117) = (   0.3331110   0.6740993   2.5851705  )
       118           C_h tau( 118) = (   0.3329710   0.8670446   2.6096596  )
       119           C   tau( 119) = (   0.4997466   0.5783682   2.5647021  )
       120           C   tau( 120) = (   0.4999838   0.9653277   2.6122075  )
       121           C   tau( 121) = (   0.6664953   0.6742678   2.5820520  )
       122           C   tau( 122) = (   0.6663998   0.8673954   2.6037964  )
       123           C   tau( 123) = (   0.8331008   0.5776885   2.5641855  )
       124           C   tau( 124) = (   0.8332477   0.9647019   2.5973254  )
       125           C   tau( 125) = (   0.0000710   1.2537597   2.5618756  )
       126           C   tau( 126) = (   0.0001158   1.4445822   2.5252882  )
       127           C   tau( 127) = (   0.1668448   1.1579586   2.5811571  )
       128           C   tau( 128) = (   0.1667803   1.5400959   2.5059542  )
       129           C   tau( 129) = (   0.3335356   1.2546126   2.5695193  )
       130           C   tau( 130) = (   0.3335027   1.4444043   2.5269442  )
       131           C   tau( 131) = (   0.5000824   1.1587316   2.5904068  )
       132           C   tau( 132) = (   0.5000760   1.5393962   2.5038670  )
       133           C   tau( 133) = (   0.6665019   1.2546303   2.5687975  )
       134           C   tau( 134) = (   0.6665495   1.4443316   2.5269178  )
       135           C   tau( 135) = (   0.8334671   1.1581306   2.5807843  )
       136           C   tau( 136) = (   0.8333255   1.5402118   2.5066151  )
       137           C   tau( 137) = (   0.0000004   1.8277352   2.4539580  )
       138           C   tau( 138) = (  -0.0000015   2.0216453   2.4380816  )
       139           C   tau( 139) = (   0.1667979   1.7311224   2.4699837  )
       140           C   tau( 140) = (   0.1667608   2.1194820   2.4391038  )
       141           C   tau( 141) = (   0.3334638   1.8277274   2.4563194  )
       142           C   tau( 142) = (   0.3334790   2.0215976   2.4405198  )
       143           C   tau( 143) = (   0.4999842   1.7306087   2.4686680  )
       144           C   tau( 144) = (   0.5000116   2.1195299   2.4408306  )
       145           C   tau( 145) = (   0.6666293   1.8276257   2.4559927  )
       146           C   tau( 146) = (   0.6665863   2.0215855   2.4403438  )
       147           C   tau( 147) = (   0.8331931   1.7310805   2.4699489  )
       148           C   tau( 148) = (   0.8332380   2.1195278   2.4386194  )
       149           C   tau( 149) = (   0.3726381   0.8371666   2.1777400  )
       150           O   tau( 150) = (   0.4493068   0.9396855   2.2775618  )

     number of k points=     6  gaussian smearing, width (Ry)=  0.1000
                       cart. coord. in units 2pi/alat
        k(    1) = (   0.0000000   0.0000000   0.0000000), wk =   0.2500000
        k(    2) = (   0.0000000  -0.2165064   0.0000000), wk =   0.2500000
        k(    3) = (   0.2500000   0.0000000   0.0000000), wk =   0.5000000
        k(    4) = (   0.2500000  -0.2165064   0.0000000), wk =   0.5000000
        k(    5) = (  -0.5000000   0.0000000   0.0000000), wk =   0.2500000
        k(    6) = (  -0.5000000  -0.2165064   0.0000000), wk =   0.2500000

     Largest allocated arrays     est. size (Mb)     dimensions
     Largest temporary arrays     est. size (Mb)     dimensions

     Initial potential from superposition of free atoms
     Check: negative starting charge=   -0.001516

     starting charge 1276.31751, renormalised to 1302.00000

     negative rho (up, down):  1.546E-03 0.000E+00
     Starting wfc are 1296 randomized atomic wfcs

     Self-consistent Calculation

     iteration #  1     ecut=    80.00 Ry     beta=0.70
     Davidson diagonalization with overlap
     c_bands:  5 eigenvalues not converged
     c_bands:  5 eigenvalues not converged
     c_bands:  3 eigenvalues not converged
     c_bands:  2 eigenvalues not converged
     ethr =  1.00E-04,  avg # of iterations = 42.5

     negative rho (up, down):  2.522E+01 0.000E+00

     total energy              =   -9992.93119493 Ry
     Harris-Foulkes estimate   =  -18269.31181924 Ry
     estimated scf accuracy    <  211435.42003335 Ry

     iteration #  2     ecut=    80.00 Ry     beta=0.70
     Davidson diagonalization with overlap
     ethr =  1.00E-02,  avg # of iterations = 13.7

[...]

     iteration # 39     ecut=    80.00 Ry     beta=0.70
     Davidson diagonalization with overlap
     c_bands:  2 eigenvalues not converged
     ethr =  4.88E-10,  avg # of iterations =  9.7

[...]

     total energy              =  -12750.20801057 Ry
     Harris-Foulkes estimate   =  -12750.20801056 Ry
     estimated scf accuracy    <       0.00000001 Ry

     iteration # 45     ecut=    80.00 Ry     beta=0.70
     Davidson diagonalization with overlap
     ethr =  9.10E-13,  avg # of iterations =  3.0

     negative rho (up, down):  1.685E-03 0.000E+00

     End of self-consistent calculation

          k = 0.0000 0.0000 0.0000 (256287 PWs)   bands (ev):

   -20.3051 -16.8391 -15.8212 -15.6413 -15.0106 -14.6369 -14.3649 -14.2422
   -13.8423 -13.7891 -13.6923 -13.6781 -13.0863 -12.9461 -12.7510 -12.7320
   -12.6834 -12.6771 -11.3322 -11.1602 -11.1246 -11.0207 -10.9315  -9.9449
    -9.4455  -9.4082  -9.2470  -9.1796  -8.5766  -8.3947  -8.2546  -8.1732
    -7.6992  -7.5079  -7.4417  -7.2790  -7.1869  -7.1732  -7.1354  -7.0991
    -6.8599  -6.0190  -6.0091  -5.8794  -5.7680  -5.6627  -5.6041  -5.5618
    -5.5420  -5.5281  -5.3551  -5.3501  -4.8892  -4.7558  -4.5460  -4.5105
    -4.4449  -4.3823  -4.2840  -4.2058  -4.1055  -3.9595  -3.8620  -3.8272
    -3.7519  -3.6910  -3.6023  -3.5595  -3.4531  -3.3047  -3.2891  -3.2728
    -3.2596  -3.2105  -3.0962  -3.0938  -3.0671  -2.9441  -2.8870  -2.8852
    -2.8766  -2.8717  -2.8589  -2.7569  -2.7110  -2.6834  -2.5881  -2.5795
    -2.5451  -2.5120  -2.4814  -2.4514  -2.4371  -2.3887  -2.3705  -2.2033
    -2.1808  -2.1766  -2.1534  -2.1444  -2.0727  -2.0682  -2.0422  -2.0393
    -2.0371  -2.0341  -1.9192  -1.9164  -1.9063  -1.8946  -1.8915  -1.8700
    -1.7567  -1.7535  -1.7421  -1.6661  -1.6408  -1.6270  -1.6253  -1.6235
    -1.6133  -1.6096  -1.6014  -1.5879  -1.5721  -1.5417  -1.5356  -1.5254
    -1.5178  -1.5090  -1.4960  -1.4681  -1.4633  -1.4418  -1.4383  -1.4310
    -1.4262  -1.4200  -1.4103  -1.4044  -1.4017  -1.3558  -1.3346  -1.3298
    -1.3081  -1.2457  -1.2160  -1.1959  -1.1933  -1.1893  -1.1723  -1.1605
    -1.1567  -1.1537  -1.1377  -1.1108  -1.1006  -1.0858  -1.0855  -1.0617
    -1.0508  -0.9801  -0.9691  -0.9576  -0.9554  -0.9506  -0.9438  -0.9396
    -0.9335  -0.9312  -0.9297  -0.9176  -0.9142  -0.9080  -0.9029  -0.8954
    -0.8939  -0.8907  -0.8814  -0.8498  -0.8454  -0.8416  -0.8375  -0.8251
    -0.8189  -0.8161  -0.8137  -0.7878  -0.7687  -0.7627  -0.7580  -0.7546
    -0.7517  -0.7489  -0.7454  -0.7447  -0.7427  -0.7402  -0.7392  -0.7382
    -0.7353  -0.7340  -0.7315  -0.7181  -0.6663  -0.6198  -0.5921  -0.5877
    -0.5825  -0.5784  -0.5722  -0.5678  -0.5605  -0.5463  -0.5365  -0.5321
    -0.5278  -0.5237  -0.5188  -0.5162  -0.5041  -0.4960  -0.4759  -0.4657
    -0.4628  -0.4619  -0.4599  -0.4572  -0.4534  -0.4497  -0.4415  -0.4171
    -0.3980  -0.3914  -0.3891  -0.3699  -0.3600  -0.3542  -0.3464  -0.3380
    -0.3300  -0.3268  -0.3196  -0.3139  -0.3132  -0.3109  -0.3075  -0.3052
    -0.3047  -0.3031  -0.2998  -0.2956  -0.2941  -0.2866  -0.2824  -0.2796
    -0.2681  -0.2505  -0.2384  -0.2342  -0.2184  -0.2128  -0.1981  -0.1921
    -0.1893  -0.1830  -0.1814  -0.1784  -0.1748  -0.1687  -0.1677  -0.1617
    -0.1475  -0.1443  -0.1411  -0.1385  -0.1370  -0.1294  -0.1282  -0.1243
    -0.1206  -0.1143  -0.1078  -0.0985  -0.0947  -0.0927  -0.0846  -0.0840
    -0.0781  -0.0629  -0.0491  -0.0375  -0.0278  -0.0244  -0.0115  -0.0035
     0.0088   0.0114   0.0206   0.0272   0.0313   0.0382   0.0415   0.0440
     0.0486   0.0523   0.0602   0.0780   0.0836   0.0892   0.0956   0.1016
     0.1040   0.1063   0.1157   0.1270   0.1305   0.1354   0.1361   0.1379
     0.1445   0.1482   0.1505   0.1521   0.1582   0.1615   0.1666   0.1692
     0.1840   0.1873   0.1938   0.2019   0.2058   0.2079   0.2343   0.2374
     0.2410   0.2490   0.2554   0.2610   0.2677   0.2892   0.2947   0.3001
     0.3023   0.3116   0.3193   0.3319   0.3381   0.3522   0.3621   0.3691
     0.3738   0.3805   0.3834   0.3958   0.4099   0.4168   0.4231   0.4262
     0.4295   0.4492   0.4524   0.4534   0.4595   0.4695   0.4742   0.4799
     0.4838   0.4954   0.5008   0.5023   0.5141   0.5242   0.5253   0.5318
     0.5405   0.5470   0.5496   0.5569   0.5729   0.5779   0.5819   0.5844
     0.5872   0.5942   0.5994   0.6148   0.6199   0.6207   0.6249   0.6276
     0.6330   0.6375   0.6384   0.6429   0.6458   0.6461   0.6495   0.6544
     0.6594   0.6616   0.6686   0.6749   0.6842   0.6864   0.6944   0.7034
     0.7061   0.7138   0.7177   0.7281   0.7308   0.7338   0.7414   0.7439
     0.7455   0.7595   0.7611   0.7626   0.7667   0.7677   0.7714   0.7760
     0.7779   0.7810   0.7866   0.7920   0.7989   0.8064   0.8093   0.8137
     0.8204   0.8252   0.8257   0.8259   0.8272   0.8373   0.8409   0.8443
     0.8467   0.8535   0.8565   0.8611   0.8807   0.8861   0.8917   0.9002
     0.9083   0.9136   0.9254   0.9286   0.9324   0.9396   0.9421   0.9562
     0.9574   0.9608   0.9661   0.9700   0.9725   0.9797   0.9885   0.9954
     0.9963   0.9999   1.0048   1.0071   1.0124   1.0180   1.0209   1.0226
     1.0285   1.0373   1.0448   1.0533   1.0564   1.0660   1.0737   1.0774
[...]
     3.9249   3.9785   3.9960   4.0289   4.0673   4.0705   4.0821   4.0911
     4.0976   4.1233   4.1830   4.2115   4.2352   4.2735   4.6274   4.7066
     4.8430   5.0244   5.1378   5.2020   5.2267   5.2677   5.2827   5.3492
     5.4267   5.5040   5.5727   5.6675   5.6847   5.8893   6.0131   6.0354
     6.1422   6.2776   6.2853   6.4247   6.4424   6.5046   6.5218   6.5768
     6.6104   6.6497   6.7048   6.7352   6.8141   6.8440   6.9394   6.9569
     6.9835   6.9958   7.0583   7.0666   7.1064   7.1531   7.1674   7.2113
     7.3411   7.4381   7.4683   7.5015   7.5402   7.6646   7.7296   7.7723
     7.8124   7.9252   8.0469   8.0530   8.1394   8.1694   8.1856   8.1926
     8.2790   8.3241   8.3387   8.3594   8.4252   8.4306   8.4453   8.5036
     8.5463   8.5927   8.6224   8.6386   8.6461   8.6762   8.7532   8.8006
     8.8032   8.8408   8.8471   8.8614   8.8928   8.9141   9.0096   9.0526
     9.0715   9.1197   9.1689   9.2122   9.2807   9.3639   9.4139   9.4415
     9.4893   9.4951   9.5471   9.6276   9.6505   9.7138   9.7598   9.9168
     9.9699  10.0211  10.1236  10.1296  10.1377

[...]

          k = 0.2500-0.2165 0.0000 (256316 PWs)   bands (ev):

[...]

          k =-0.5000 0.0000 0.0000 (256496 PWs)   bands (ev):

[...]

          k =-0.5000-0.2165 0.0000 (256328 PWs)   bands (ev):

   -20.3051 -16.7282 -15.5277 -15.3948 -15.3713 -14.9576 -14.8029 -14.7269
   -14.6947 -13.6693 -13.4525 -13.3192 -13.2856 -12.2620 -12.0114 -11.6079
   -11.5692 -11.5497 -11.4171 -11.3289 -11.2679 -11.1247 -11.1161 -11.0127
   -10.9945  -9.6530  -9.6326  -9.3882  -9.3459  -8.9034  -8.5670  -8.4562
    -8.4211  -7.9387  -7.9047  -7.7036  -7.6900  -6.8532  -6.2518  -5.9354
    -5.8422  -5.6587  -5.5320  -5.2976  -5.0709  -5.0570  -5.0456  -5.0439
    -5.0167  -4.9640  -4.9594  -4.7777  -4.6807  -4.5721  -4.5582  -4.4178
    -4.0960  -4.0721  -4.0706  -4.0681  -4.0534  -4.0252  -4.0192  -4.0012
    -3.9758  -3.8589  -3.8111  -3.7599  -3.7504  -3.6694  -3.5641  -3.5363
    -3.5096  -3.4715  -3.3945  -3.3799  -3.3775  -3.3414  -3.3295  -3.3154
    -3.2591  -3.1415  -3.1226  -3.1130  -3.0414  -2.8637  -2.6977  -2.6557
    -2.6291  -2.4734  -2.4702  -2.4622  -2.4571  -2.4554  -2.4489  -2.4412
    -2.3570  -2.3327  -2.2835  -2.1387  -2.0846  -1.9693  -1.9669  -1.9640
    -1.9627  -1.9602  -1.9506  -1.9344  -1.8696  -1.8277  -1.7708  -1.7356
    -1.7043  -1.6880  -1.6877  -1.6841  -1.6716  -1.5146  -1.4914  -1.4860
    -1.4742  -1.4312  -1.4105  -1.3918  -1.3890  -1.3860  -1.3841  -1.3820
    -1.3781  -1.3368  -1.3333  -1.3322  -1.3283  -1.3077  -1.2869  -1.2838
    -1.2736  -1.2726  -1.2708  -1.2677  -1.2671  -1.2613  -1.2571  -1.2511
    -1.2471  -1.2442  -1.2052  -1.2011  -1.1980  -1.1911  -1.1816  -1.1711
    -1.1661  -1.1167  -1.1081  -1.0975  -1.0949  -1.0853  -1.0836  -1.0791
    -1.0761  -1.0638  -1.0540  -1.0477  -1.0473  -1.0441  -1.0407  -1.0394
    -1.0281  -1.0224  -1.0211  -1.0142  -1.0072  -1.0012  -0.9857  -0.9756
    -0.9667  -0.9642  -0.9595  -0.9584  -0.9520  -0.9458  -0.9381  -0.9351
    -0.9326  -0.9280  -0.9262  -0.9195  -0.9154  -0.9130  -0.8156  -0.8097
    -0.7973  -0.7891  -0.7722  -0.7693  -0.7640  -0.7617  -0.7481  -0.7480
    -0.7475  -0.6981  -0.6886  -0.6815  -0.6753  -0.6698  -0.6673  -0.6613
    -0.6594  -0.6533  -0.6530  -0.6498  -0.6471  -0.6067  -0.6052  -0.5985
    -0.5955  -0.5942  -0.5850  -0.5827  -0.5763  -0.5738  -0.5686  -0.5485
    -0.5398  -0.5087  -0.4787  -0.4625  -0.4542  -0.4504  -0.4447  -0.4391
    -0.4344  -0.4249  -0.4115  -0.3964  -0.3929  -0.3722  -0.3575  -0.3555
    -0.3506  -0.3452  -0.3387  -0.3285  -0.3241  -0.3186  -0.3118  -0.3010
    -0.2976  -0.2919  -0.2853  -0.2821  -0.2733  -0.2472  -0.2243  -0.2139
    -0.2095  -0.2077  -0.1892  -0.1839  -0.1711  -0.1617  -0.1595  -0.1562
    -0.1542  -0.1509  -0.1490  -0.1426  -0.1351  -0.1203  -0.0952  -0.0857
    -0.0810  -0.0793  -0.0696  -0.0665  -0.0649  -0.0603  -0.0578  -0.0561
    -0.0552  -0.0445  -0.0361  -0.0343  -0.0327  -0.0276  -0.0255  -0.0155
    -0.0146  -0.0100  -0.0065  -0.0007   0.0100   0.0106   0.0200   0.0272
     0.0541   0.0576   0.0665   0.0716   0.0796   0.1101   0.1161   0.1264
     0.1340   0.1393   0.1434   0.1463   0.1480   0.1490   0.1544   0.1624
     0.1669   0.1712   0.1745   0.1777   0.1824   0.1833   0.1901   0.1936
     0.1984   0.2021   0.2041   0.2050   0.2075   0.2083   0.2101   0.2122
     0.2156   0.2184   0.2233   0.2279   0.2366   0.2428   0.2511   0.2553
     0.2621   0.2665   0.2754   0.2828   0.2890   0.2949   0.3062   0.3110
     0.3127   0.3198   0.3233   0.3369   0.3414   0.3464   0.3497   0.3803
     0.3922   0.4071   0.4098   0.4171   0.4206   0.4357   0.4449   0.4492
     0.4506   0.4597   0.4623   0.4688   0.4732   0.4790   0.4801   0.4841
     0.4886   0.4932   0.5010   0.5031   0.5152   0.5243   0.5301   0.5359
     0.5405   0.5443   0.5521   0.5524   0.5543   0.5574   0.5584   0.5631
     0.5672   0.5722   0.5755   0.5832   0.5893   0.5910   0.5932   0.6038
     0.6092   0.6219   0.6240   0.6338   0.6345   0.6384   0.6433   0.6473
     0.6516   0.6531   0.6585   0.6623   0.6646   0.6684   0.6748   0.6788
     0.6842   0.6880   0.6900   0.6949   0.6958   0.6987   0.7016   0.7066
     0.7110   0.7134   0.7146   0.7182   0.7268   0.7358   0.7423   0.7524
     0.7599   0.7633   0.7643   0.7684   0.7713   0.7800   0.7813   0.7863
     0.7914   0.7956   0.7979   0.8053   0.8098   0.8132   0.8153   0.8207
     0.8208   0.8239   0.8268   0.8328   0.8396   0.8414   0.8496   0.8636
     0.8666   0.8720   0.8893   0.8942   0.8982   0.8986   0.9086   0.9222
     0.9306   0.9341   0.9384   0.9410   0.9517   0.9527   0.9529   0.9546
     0.9585   0.9598   0.9844   0.9991   1.0028   1.0078   1.0109   1.0129
     1.0188   1.0225   1.0298   1.0345   1.0424   1.0533   1.0603   1.0650
[...]
     4.2374   4.2815   4.3067   4.3134   4.3473   4.4006   4.4881   4.5083
     4.5774   4.6473   4.7029   4.7083   4.7468   4.7664   4.9780   5.0303
     5.1019   5.1234   5.1251   5.1887   5.1961   5.2033   5.2281   5.2359
     5.2519   5.2701   5.2872   5.3113   5.3511   5.4406   5.4541   5.4633
     5.5156   5.6700   5.6767   5.7143   5.7638   5.7924   5.8065   5.8162
     5.8294   5.8546   5.9726   5.9841   6.0196   6.2475   6.3865   6.7728
     6.7987   6.9951   7.0172   7.0730   7.0763   7.0976   7.1056   7.1274
     7.1524   7.1744   7.1960   7.2142   7.2370   7.3255   7.3449   7.4142
     7.4342   7.4573   7.4842   7.5132   7.5254   7.6529   7.7861   7.8157
     7.9362   7.9480   8.0628   8.1335   8.1506   8.1853   8.2235   8.2540
     8.2652   8.3194   8.3789   8.3847   8.3916   8.4348   8.7089   8.8825
     8.9069   8.9241   8.9405   8.9577   8.9850   8.9941   9.0012   9.0255
     9.0455   9.1288   9.1343   9.1463   9.1552   9.1622   9.2566   9.3259
     9.3300   9.3432   9.3570   9.4420   9.4535   9.4609   9.4666   9.5122
     9.5212   9.6711   9.8100   9.8843   9.9966

     the Fermi energy is     3.3976 ev

!    total energy              =  -12750.20801058 Ry
     Harris-Foulkes estimate   =  -12750.20801057 Ry
     estimated scf accuracy    <          4.8E-09 Ry

     The total energy is the sum of the following terms:

     one-electron contribution = -100069.72234603 Ry
     hartree contribution      =   51405.61949734 Ry
     xc contribution           =   -4456.64405328 Ry
     ewald contribution        =   40376.71452577 Ry
     Dispersion Correction     =      -2.79637894 Ry
     smearing contrib. (-TS)   =      -3.37925543 Ry

     convergence has been achieved in  45 iterations

     Writing output data file gc.save

     General routines

     Parallel routines

   This run was terminated on:   8:59:28   1Oct2017

   JOB DONE.