     Program PWSCF v.5.4.0 starts on 26Mar2017 at 13:43:50

     Current dimensions of program PWSCF are:
     Max number of different atomic species (ntypx) = 10
     Max number of k-points (npk) =  40000
     Max angular momentum in pseudopotentials (lmaxx) =  3

     Parameters for Dispersion Correction:
       atom      VdW radius       C_6

        Cu         2.952        374.666
        C_h        2.744         60.710
        C          2.744         60.710

     bravais-lattice index     =            0
     lattice parameter (alat)  =      13.9425  a.u.
     unit-cell volume          =   21209.0878 (a.u.)^3
     number of atoms/cell      =          148
     number of atomic types    =            3
     number of electrons       =      1292.00
     number of Kohn-Sham states=          775
     kinetic-energy cutoff     =      80.0000  Ry
     charge density cutoff     =     320.0000  Ry
     convergence threshold     =      1.0E-08
     mixing beta               =       0.7000
     number of iterations used =            8  local-TF  mixing
     Exchange-correlation      =  SLA  PW   PBX  PBC ( 1  4  3  4 0 0)

     celldm(1)=  13.942539  celldm(2)=   0.000000  celldm(3)=   0.000000
     celldm(4)=   0.000000  celldm(5)=   0.000000  celldm(6)=   0.000000

     crystal axes: (cart. coord. in units of alat)
               a(1) = (   1.000000   0.000000   0.000000 )
               a(2) = (   0.000000   2.309401   0.000000 )
               a(3) = (   0.000000   0.000000   3.388418 )

     reciprocal axes: (cart. coord. in units 2 pi/alat)
               b(1) = (  1.000000  0.000000  0.000000 )
               b(2) = (  0.000000  0.433013  0.000000 )
               b(3) = (  0.000000  0.000000  0.295123 )

     PseudoPot. # 1 for Cu read from file:
     /home/549/hxw549/Short/pseudopotentials/Cu.pbe-n-van_ak.UPF
     MD5 check sum: 601f7c30f7467666bec936e0661ce3e1
     Pseudo is Ultrasoft + core correction, Zval = 11.0
     Generated by new atomic code, or converted to UPF format
     Using radial grid of  867 points,  6 beta functions with:
                l(1) =   0
                l(2) =   0
                l(3) =   1
                l(4) =   1
                l(5) =   2
                l(6) =   2
     Q(r) pseudized with  8 coefficients,  rinner =    1.400   1.400   1.400
                                                       1.400   1.400

     PseudoPot. # 2 for C  read from file:
     /home/549/hxw549/Short/pseudopotentials/C.star1s-pbe-mt_gipaw.UPF
     MD5 check sum: ef0cb3dee31bd9e4ba2a832a2c716264
     Pseudo is Norm-conserving, Zval =  5.0
     Generated by new atomic code, or converted to UPF format
     Using radial grid of 1073 points,  1 beta functions with:
                l(1) =   0

     PseudoPot. # 3 for C  read from file:
     /home/549/hxw549/Short/pseudopotentials/C.pbe-mt_gipaw.UPF
     MD5 check sum: 5ac2f21f2c440b14befe521540822c15
     Pseudo is Norm-conserving, Zval =  4.0
     Generated by new atomic code, or converted to UPF format
     Using radial grid of 1073 points,  1 beta functions with:
                l(1) =   0

     atomic species   valence    mass     pseudopotential
        Cu            11.00    63.54600     Cu( 1.00)
        C_h            5.00    12.01070     C ( 1.00)
        C              4.00    12.01070     C ( 1.00)

      2 Sym. Ops. (no inversion) found

   Cartesian axes

     site n.     atom                  positions (alat units)
         1           Cu  tau(   1) = (   0.0000000   0.0000567   0.9971194  )
         2           Cu  tau(   2) = (   0.2499927   0.2309760   0.9972946  )
         3           Cu  tau(   3) = (   0.5000000   0.0000313   0.9971490  )
         4           Cu  tau(   4) = (   0.7500073   0.2309760   0.9972946  )
         5           Cu  tau(   5) = (   0.0000000   0.4618437   0.9973425  )
         6           Cu  tau(   6) = (   0.2499840   0.6927701   0.9971914  )
         7           Cu  tau(   7) = (   0.5000000   0.4618722   0.9973119  )
         8           Cu  tau(   8) = (   0.7500160   0.6927701   0.9971914  )
         9           Cu  tau(   9) = (   0.0000000   0.9237521   0.9970621  )
        10           Cu  tau(  10) = (   0.2500157   1.1547420   0.9971373  )
        11           Cu  tau(  11) = (   0.5000000   0.9237453   0.9970727  )
        12           Cu  tau(  12) = (   0.7499843   1.1547420   0.9971373  )
        13           Cu  tau(  13) = (   0.0000000   1.3856555   0.9972830  )
        14           Cu  tau(  14) = (   0.2500029   1.6165618   0.9973242  )
        15           Cu  tau(  15) = (   0.5000000   1.3857014   0.9973005  )
        16           Cu  tau(  16) = (   0.7499971   1.6165618   0.9973242  )
        17           Cu  tau(  17) = (   0.0000000   1.8474941   0.9971969  )
        18           Cu  tau(  18) = (   0.2500043   2.0784518   0.9970745  )
        19           Cu  tau(  19) = (   0.5000000   1.8474499   0.9971773  )
        20           Cu  tau(  20) = (   0.7499957   2.0784518   0.9970745  )
        21           Cu  tau(  21) = (   0.0000000   0.2308065   1.2457643  )
        22           Cu  tau(  22) = (   0.2499892  -0.0001010   1.2455764  )
        23           Cu  tau(  23) = (   0.5000000   0.2308938   1.2456746  )
        24           Cu  tau(  24) = (   0.7500108  -0.0001010   1.2455764  )
        25           Cu  tau(  25) = (   0.0000000   0.6929786   1.2456406  )
        26           Cu  tau(  26) = (   0.2499874   0.4619293   1.2457459  )
        27           Cu  tau(  27) = (   0.5000000   0.6929012   1.2456074  )
        28           Cu  tau(  28) = (   0.7500126   0.4619293   1.2457459  )
        29           Cu  tau(  29) = (   0.0000000   1.1546142   1.2455676  )
        30           Cu  tau(  30) = (   0.2499981   0.9237849   1.2455149  )
        31           Cu  tau(  31) = (   0.5000000   1.1545763   1.2455800  )
        32           Cu  tau(  32) = (   0.7500019   0.9237849   1.2455149  )
        33           Cu  tau(  33) = (   0.0000000   1.6166029   1.2456910  )
        34           Cu  tau(  34) = (   0.2500161   1.3855492   1.2457134  )
        35           Cu  tau(  35) = (   0.5000000   1.6166555   1.2458019  )
        36           Cu  tau(  36) = (   0.7499839   1.3855492   1.2457134  )
        37           Cu  tau(  37) = (   0.0000000   2.0784993   1.2455162  )
        38           Cu  tau(  38) = (   0.2500161   1.8476387   1.2456210  )
        39           Cu  tau(  39) = (   0.5000000   2.0784755   1.2455152  )
        40           Cu  tau(  40) = (   0.7499839   1.8476387   1.2456210  )
        41           Cu  tau(  41) = (   0.0000000  -0.0003182   1.4954305  )
        42           Cu  tau(  42) = (   0.2500224   0.2307186   1.4951678  )
        43           Cu  tau(  43) = (   0.5000000  -0.0002059   1.4952775  )
        44           Cu  tau(  44) = (   0.7499776   0.2307186   1.4951678  )
        45           Cu  tau(  45) = (   0.0000000   0.4620254   1.4950571  )
        46           Cu  tau(  46) = (   0.2500339   0.6931225   1.4952807  )
        47           Cu  tau(  47) = (   0.5000000   0.4619896   1.4952144  )
        48           Cu  tau(  48) = (   0.7499661   0.6931225   1.4952807  )
        49           Cu  tau(  49) = (   0.0000000   0.9238798   1.4954544  )
        50           Cu  tau(  50) = (   0.2499708   1.1544329   1.4953374  )
        51           Cu  tau(  51) = (   0.5000000   0.9237633   1.4954072  )
        52           Cu  tau(  52) = (   0.7500292   1.1544329   1.4953374  )
        53           Cu  tau(  53) = (   0.0000000   1.3854453   1.4952066  )
        54           Cu  tau(  54) = (   0.2499861   1.6167017   1.4951298  )
        55           Cu  tau(  55) = (   0.5000000   1.3853760   1.4951346  )
        56           Cu  tau(  56) = (   0.7500139   1.6167017   1.4951298  )
        57           Cu  tau(  57) = (   0.0000000   1.8477718   1.4952308  )
        58           Cu  tau(  58) = (   0.2499930   2.0785254   1.4954090  )
        59           Cu  tau(  59) = (   0.5000000   1.8478762   1.4953503  )
        60           Cu  tau(  60) = (   0.7500070   2.0785254   1.4954090  )
[...]
        92           Cu  tau(  92) = (   0.7508725   1.1552920   1.9912642  )
        93           Cu  tau(  93) = (   0.0000000   1.3865904   1.9916296  )
        94           Cu  tau(  94) = (   0.2499532   1.6162906   1.9903050  )
        95           Cu  tau(  95) = (   0.5000000   1.3858063   1.9901800  )
        96           Cu  tau(  96) = (   0.7500468   1.6162906   1.9903050  )
        97           Cu  tau(  97) = (   0.0000000   1.8468318   1.9923212  )
        98           Cu  tau(  98) = (   0.2497561   2.0783183   1.9915134  )
        99           Cu  tau(  99) = (   0.5000000   1.8467805   1.9903847  )
       100           Cu  tau( 100) = (   0.7502439   2.0783183   1.9915134  )
       101           C   tau( 101) = (   0.0000000   0.0962962   2.3888871  )
       102           C   tau( 102) = (   0.0000000   0.2886925   2.3900713  )
       103           C   tau( 103) = (   0.1666323   0.0000435   2.3878440  )
       104           C   tau( 104) = (   0.1664900   0.3848966   2.3886743  )
       105           C   tau( 105) = (   0.3331238   0.0962174   2.3860158  )
       106           C   tau( 106) = (   0.3331280   0.2886629   2.3856823  )
       107           C_h tau( 107) = (   0.5000000  -0.0000818   2.3845687  )
       108           C   tau( 108) = (   0.5000000   0.3849277   2.3842391  )
       109           C   tau( 109) = (   0.6668762   0.0962174   2.3860158  )
       110           C   tau( 110) = (   0.6668720   0.2886629   2.3856823  )
       111           C   tau( 111) = (   0.8333677   0.0000435   2.3878440  )
       112           C   tau( 112) = (   0.8335100   0.3848966   2.3886743  )
       113           C   tau( 113) = (   0.0000000   0.6735163   2.3892509  )
       114           C   tau( 114) = (   0.0000000   0.8659398   2.3870960  )
       115           C   tau( 115) = (   0.1664759   0.5773226   2.3882842  )
       116           C   tau( 116) = (   0.1667428   0.9622141   2.3870264  )
       117           C   tau( 117) = (   0.3332094   0.6735984   2.3858047  )
       118           C   tau( 118) = (   0.3332031   0.8660537   2.3866148  )
       119           C   tau( 119) = (   0.5000000   0.5773685   2.3848465  )
       120           C   tau( 120) = (   0.5000000   0.9623380   2.3860825  )
       121           C   tau( 121) = (   0.6667906   0.6735984   2.3858047  )
       122           C   tau( 122) = (   0.6667969   0.8660537   2.3866148  )
       123           C   tau( 123) = (   0.8335241   0.5773226   2.3882842  )
       124           C   tau( 124) = (   0.8332572   0.9622141   2.3870264  )
       125           C   tau( 125) = (   0.0000000   1.2508867   2.3852683  )
       126           C   tau( 126) = (   0.0000000   1.4433300   2.3840871  )
       127           C   tau( 127) = (   0.1667360   1.1546708   2.3859697  )
       128           C   tau( 128) = (   0.1668939   1.5396104   2.3857176  )
       129           C   tau( 129) = (   0.3335095   1.2509657   2.3878953  )
       130           C   tau( 130) = (   0.3334866   1.4433958   2.3886602  )
       131           C   tau( 131) = (   0.5000000   1.1547731   2.3885512  )
       132           C   tau( 132) = (   0.5000000   1.5396099   2.3901428  )
       133           C   tau( 133) = (   0.6664905   1.2509657   2.3878953  )
       134           C   tau( 134) = (   0.6665134   1.4433958   2.3886602  )
       135           C   tau( 135) = (   0.8332640   1.1546708   2.3859697  )
       136           C   tau( 136) = (   0.8331061   1.5396104   2.3857176  )
       137           C   tau( 137) = (   0.0000000   1.8283510   2.3842019  )
       138           C   tau( 138) = (   0.0000000   2.0207949   2.3863399  )
       139           C   tau( 139) = (   0.1668959   1.7320513   2.3858703  )
       140           C   tau( 140) = (   0.1666186   2.1169980   2.3865340  )
       141           C   tau( 141) = (   0.3334155   1.8282368   2.3882160  )
       142           C   tau( 142) = (   0.3334352   2.0206763   2.3869561  )
       143           C   tau( 143) = (   0.5000000   1.7319961   2.3895398  )
       144           C   tau( 144) = (   0.5000000   2.1168754   2.3870198  )
       145           C   tau( 145) = (   0.6665845   1.8282368   2.3882160  )
       146           C   tau( 146) = (   0.6665648   2.0206763   2.3869561  )
       147           C   tau( 147) = (   0.8331041   1.7320513   2.3858703  )
       148           C   tau( 148) = (   0.8333814   2.1169980   2.3865340  )

     number of k points=     6  gaussian smearing, width (Ry)=  0.1000
                       cart. coord. in units 2pi/alat
        k(    1) = (   0.0000000   0.0000000   0.0000000), wk =   0.2500000
        k(    2) = (   0.0000000  -0.2165064   0.0000000), wk =   0.2500000
        k(    3) = (   0.2500000   0.0000000   0.0000000), wk =   0.5000000
        k(    4) = (   0.2500000  -0.2165064   0.0000000), wk =   0.5000000
        k(    5) = (  -0.5000000   0.0000000   0.0000000), wk =   0.2500000
        k(    6) = (  -0.5000000  -0.2165064   0.0000000), wk =   0.2500000

     Largest allocated arrays     est. size (Mb)     dimensions
     Largest temporary arrays     est. size (Mb)     dimensions

     Initial potential from superposition of free atoms
     Check: negative starting charge=   -0.001842

     starting charge 1266.81751, renormalised to 1292.00000

     negative rho (up, down):  1.879E-03 0.000E+00
     Starting wfc are 1284 randomized atomic wfcs

     Self-consistent Calculation

     iteration #  1     ecut=    80.00 Ry     beta=0.70
     Davidson diagonalization with overlap
     c_bands:  5 eigenvalues not converged
     ethr =  1.00E-04,  avg # of iterations = 36.2

     negative rho (up, down):  2.722E+01 0.000E+00

     total energy              =   -9476.96651753 Ry
     Harris-Foulkes estimate   =  -17310.13413172 Ry
     estimated scf accuracy    <  180071.32037866 Ry

     iteration #  2     ecut=    80.00 Ry     beta=0.70
     Davidson diagonalization with overlap
     ethr =  1.00E-02,  avg # of iterations = 12.3

[...]

     iteration # 37     ecut=    80.00 Ry     beta=0.70
     Davidson diagonalization with overlap
     c_bands:  1 eigenvalues not converged
     ethr =  4.56E-09,  avg # of iterations =  9.8

[...]

     total energy              =  -12707.14230807 Ry
     Harris-Foulkes estimate   =  -12707.14230806 Ry
     estimated scf accuracy    <       0.00000001 Ry

     iteration # 45     ecut=    80.00 Ry     beta=0.70
     Davidson diagonalization with overlap
     ethr =  9.99E-13,  avg # of iterations =  2.5

     negative rho (up, down):  2.115E-03 0.000E+00

     End of self-consistent calculation

          k = 0.0000 0.0000 0.0000 (256287 PWs)   bands (ev):

   -17.2871 -16.2344 -16.0872 -15.4312 -15.0433 -14.7896 -14.6900 -14.2524
   -14.1989 -14.1377 -14.1244 -13.4673 -13.3245 -13.1544 -13.1202 -13.0871
   -13.0778 -11.6679 -11.5339 -11.4865 -11.3888 -11.2049 -10.3532  -9.7685
    -9.7597  -9.6267  -9.5228  -8.9869  -8.7993  -8.6751  -8.5994  -8.0470
    -7.9024  -7.7655  -7.6397  -7.5789  -7.5715  -7.5359  -7.5214  -6.3580
    -6.3508  -6.1264  -6.0220  -6.0185  -5.9506  -5.8891  -5.8590  -5.8427
    -5.5003  -5.4849  -5.3095  -4.8945  -4.8384  -4.7995  -4.6354  -4.6218
    -4.5836  -4.4243  -4.2592  -4.1471  -3.9899  -3.9884  -3.9694  -3.9451
    -3.6165  -3.5513  -3.5322  -3.5256  -3.4207  -3.4172  -3.4081  -3.4008
    -3.2772  -3.1873  -3.1218  -3.0590  -3.0149  -3.0092  -3.0072  -3.0061
    -2.9916  -2.8587  -2.8342  -2.7974  -2.7812  -2.7435  -2.7417  -2.7400
    -2.7172  -2.7137  -2.5329  -2.4328  -2.3778  -2.3764  -2.3394  -2.3367
    -2.1954  -2.1926  -2.1798  -2.1774  -2.1526  -2.1524  -2.1523  -2.1522
    -2.1127  -2.0786  -2.0774  -2.0347  -2.0217  -2.0216  -2.0215  -2.0211
    -1.9616  -1.8423  -1.7775  -1.7461  -1.7395  -1.7384  -1.7381  -1.7030
    -1.6935  -1.6722  -1.6590  -1.6573  -1.6146  -1.6006  -1.5920  -1.5755
    -1.5641  -1.5630  -1.5560  -1.5516  -1.5404  -1.5352  -1.5351  -1.5160
    -1.5146  -1.4605  -1.4419  -1.4320  -1.4163  -1.3861  -1.3805  -1.3765
    -1.3707  -1.3534  -1.2994  -1.2897  -1.2639  -1.2627  -1.2506  -1.2121
    -1.2118  -1.1923  -1.1902  -1.1790  -1.1675  -1.1646  -1.1218  -1.1211
    -1.1088  -1.1058  -1.0495  -1.0478  -1.0353  -1.0300  -1.0273  -1.0254
    -1.0252  -1.0225  -1.0211  -1.0162  -1.0160  -0.9987  -0.9955  -0.9805
    -0.9523  -0.9387  -0.9378  -0.9348  -0.9240  -0.9195  -0.9185  -0.9177
    -0.8922  -0.8604  -0.8581  -0.8580  -0.8568  -0.8551  -0.8549  -0.8544
    -0.8535  -0.8526  -0.8502  -0.8487  -0.8487  -0.8484  -0.8463  -0.8431
    -0.8416  -0.8340  -0.8302  -0.8300  -0.8234  -0.7862  -0.6903  -0.6901
    -0.6857  -0.6835  -0.6834  -0.6607  -0.6590  -0.6420  -0.6418  -0.6206
    -0.6201  -0.6063  -0.6047  -0.6036  -0.6031  -0.5883  -0.5648  -0.5643
    -0.5623  -0.5617  -0.5544  -0.5534  -0.5428  -0.5425  -0.4928  -0.4925
    -0.4387  -0.4384  -0.4281  -0.4265  -0.4264  -0.4248  -0.4112  -0.4109
    -0.4053  -0.4053  -0.4051  -0.4046  -0.4005  -0.4002  -0.3880  -0.3856
    -0.3855  -0.3784  -0.3753  -0.3752  -0.3516  -0.3510  -0.3001  -0.2987
    -0.2971  -0.2916  -0.2914  -0.2649  -0.2649  -0.2649  -0.2649  -0.2490
    -0.2479  -0.2473  -0.2429  -0.2429  -0.2249  -0.2215  -0.2205  -0.2199
    -0.2157  -0.2152  -0.2148  -0.2146  -0.2122  -0.2092  -0.1929  -0.1906
    -0.1898  -0.1886  -0.1880  -0.1687  -0.1215  -0.1208  -0.1189  -0.1183
    -0.1159  -0.0739  -0.0720  -0.0703  -0.0688  -0.0688  -0.0628  -0.0625
    -0.0623  -0.0622  -0.0620  -0.0530  -0.0481  -0.0342  -0.0118  -0.0091
    -0.0086  -0.0082   0.0005   0.0202   0.0203   0.0207   0.0212   0.0259
     0.0296   0.0447   0.0455   0.0468   0.0470   0.0481   0.0488   0.0607
     0.0632   0.0633   0.0635   0.0685   0.0754   0.0765   0.0771   0.0972
     0.1018   0.1120   0.1346   0.1351   0.1552   0.1641   0.1642   0.1887
     0.1930   0.2336   0.2371   0.2377   0.2382   0.2393   0.2428   0.2522
     0.2695   0.2728   0.2731   0.2734   0.2736   0.2832   0.2840   0.2926
     0.3259   0.3403   0.3403   0.3479   0.3489   0.3495   0.3500   0.3769
     0.3822   0.3830   0.3835   0.3839   0.4132   0.4144   0.4158   0.4224
     0.4224   0.4350   0.4365   0.4384   0.4397   0.4764   0.4789   0.4905
     0.4940   0.4962   0.4964   0.4967   0.5092   0.5169   0.5272   0.5310
     0.5329   0.5347   0.5350   0.5352   0.5358   0.5391   0.5459   0.5466
     0.5467   0.5536   0.5536   0.5551   0.5634   0.5635   0.5790   0.5952
     0.6052   0.6054   0.6156   0.6161   0.6482   0.6489   0.6493   0.6500
     0.6522   0.6522   0.6526   0.6531   0.6634   0.6648   0.6735   0.6781
     0.6785   0.6790   0.6799   0.6868   0.6872   0.6968   0.6975   0.7161
     0.7195   0.7199   0.7200   0.7304   0.7309   0.7417   0.7422   0.7423
     0.7457   0.7472   0.7480   0.7481   0.7549   0.7572   0.7593   0.7627
     0.7678   0.7742   0.8053   0.8055   0.8155   0.8168   0.8225   0.8239
     0.8241   0.8245   0.8550   0.8557   0.8692   0.8705   0.8757   0.8757
     0.8902   0.8906   0.8997   0.8999   0.9004   0.9016   0.9085   0.9213
     0.9364   0.9372   0.9387   0.9415   0.9420   0.9431   0.9583   0.9653
     0.9771   0.9852   0.9854   0.9957   0.9965   1.0012   1.0073   1.0086
[...]
     3.8498   3.8534   3.8538   3.8907   3.9667   3.9796   3.9872   4.0060
     4.0067   4.0075   4.0086   4.0120   4.0133   4.2238   4.2469   4.2504
     4.2510   4.3403   4.3963   4.7229   4.7616   4.8371   4.8832   4.9013
     5.3039   5.3920   5.3982   5.4062   5.7028   5.7074   5.7189   5.7230
     5.9288   5.9306   6.1869   6.3445   6.3510   6.3950   6.4094   6.4693
     6.4698   6.4754   6.4804   6.5784   6.5989   6.6062   6.7181   6.7761
     6.7802   6.7935   6.8089   6.8375   7.0310   7.0494   7.0503   7.0557
     7.0669   7.0915   7.3559   7.3583   7.5104   7.5488   7.5491   7.6955
     7.6966   7.7042   7.7094   8.0043   8.0402   8.0854   8.1306   8.1927
     8.2339   8.2995   8.3058   8.3064   8.3299   8.3351   8.3478   8.3891
     8.4040   8.4541   8.4944   8.5514   8.5669   8.5679   8.6603   8.6639
     8.6682   8.6682   8.8137   8.8159   8.8277   8.8337   8.8388   8.8390
     9.1076   9.1090   9.1099   9.1156   9.1184   9.1386   9.1745   9.3224
     9.3421   9.3452   9.4249   9.4798   9.4908   9.5771   9.5779   9.6615
     9.6711   9.7995   9.8303  10.0430  10.0431  10.1269  10.1793

[...]

          k = 0.2500-0.2165 0.0000 (256316 PWs)   bands (ev):

[...]

          k =-0.5000 0.0000 0.0000 (256496 PWs)   bands (ev):

[...]

          k =-0.5000-0.2165 0.0000 (256328 PWs)   bands (ev):

   -17.1757 -15.9761 -15.8191 -15.7960 -15.3892 -15.2185 -15.1503 -15.1143
   -14.0581 -13.8401 -13.7090 -13.6729 -12.6822 -12.4565 -12.0026 -11.9965
   -11.9192 -11.7748 -11.6717 -11.5896 -11.5358 -11.5354 -11.4233 -11.4060
   -10.0445 -10.0378  -9.7694  -9.7233  -9.2280  -8.9111  -8.7952  -8.7611
    -8.2694  -8.2305  -8.0222  -7.9994  -6.5362  -6.3462  -6.1218  -5.9492
    -5.8393  -5.6250  -5.3889  -5.3128  -5.3052  -5.2210  -5.2134  -5.1823
    -5.1802  -5.1801  -5.0160  -5.0071  -4.9677  -4.5111  -4.3846  -4.3510
    -4.3238  -4.3234  -4.2627  -4.2146  -4.2023  -4.1989  -4.1983  -4.1982
    -4.0808  -4.0761  -3.9148  -3.8752  -3.8647  -3.8601  -3.7547  -3.7447
    -3.7037  -3.6886  -3.6048  -3.5923  -3.5820  -3.4869  -3.4676  -3.4569
    -3.1737  -3.0872  -3.0728  -3.0622  -2.6381  -2.5826  -2.5817  -2.5797
    -2.5796  -2.5791  -2.5453  -2.5297  -2.5245  -2.5236  -2.4080  -2.3523
    -2.1678  -2.1512  -2.1088  -2.1010  -2.0975  -2.0964  -2.0523  -2.0486
    -2.0207  -2.0201  -2.0180  -2.0091  -1.9399  -1.8038  -1.8035  -1.8025
    -1.8024  -1.7712  -1.7395  -1.7288  -1.5672  -1.5244  -1.5094  -1.5025
    -1.4941  -1.4940  -1.4940  -1.4939  -1.4605  -1.4570  -1.4545  -1.4544
    -1.4343  -1.4342  -1.4339  -1.4338  -1.3850  -1.3847  -1.3846  -1.3844
    -1.3829  -1.3828  -1.3823  -1.3822  -1.3592  -1.3592  -1.3590  -1.3590
    -1.3101  -1.3091  -1.3082  -1.3078  -1.3057  -1.2386  -1.2344  -1.2340
    -1.2328  -1.1916  -1.1916  -1.1914  -1.1914  -1.1757  -1.1718  -1.1716
    -1.1716  -1.1284  -1.1226  -1.1225  -1.1223  -1.1181  -1.1163  -1.1163
    -1.1162  -1.1097  -1.0968  -1.0930  -1.0908  -1.0837  -1.0579  -1.0578
    -1.0574  -1.0573  -1.0424  -1.0409  -1.0408  -1.0406  -1.0397  -1.0380
    -1.0377  -1.0373  -1.0373  -1.0106  -0.8832  -0.8832  -0.8827  -0.8824
    -0.8536  -0.8535  -0.8533  -0.8532  -0.8012  -0.7712  -0.7711  -0.7703
    -0.7702  -0.7697  -0.7687  -0.7675  -0.7638  -0.7625  -0.7620  -0.7618
    -0.7025  -0.7011  -0.7008  -0.7005  -0.6941  -0.6897  -0.6888  -0.6886
    -0.6733  -0.6684  -0.6678  -0.6678  -0.6410  -0.5828  -0.5721  -0.5718
    -0.5684  -0.5676  -0.5671  -0.5666  -0.5175  -0.4990  -0.4987  -0.4985
    -0.4975  -0.4502  -0.4495  -0.4491  -0.4453  -0.4289  -0.4286  -0.4282
    -0.4281  -0.4105  -0.4007  -0.4002  -0.3900  -0.3899  -0.3890  -0.3889
    -0.3750  -0.3528  -0.3499  -0.3484  -0.3477  -0.2744  -0.2743  -0.2737
    -0.2736  -0.2583  -0.2582  -0.2577  -0.2576  -0.2419  -0.2413  -0.2408
    -0.2403  -0.1601  -0.1598  -0.1591  -0.1582  -0.1540  -0.1538  -0.1537
    -0.1536  -0.1523  -0.1503  -0.1501  -0.1469  -0.1133  -0.1133  -0.1131
    -0.1131  -0.1012  -0.1007  -0.1000  -0.0996  -0.0967  -0.0966  -0.0964
    -0.0963  -0.0671  -0.0276  -0.0266  -0.0262  -0.0260  -0.0010  -0.0009
     0.0012   0.0020   0.0475   0.0492   0.0534   0.0553   0.0586   0.0651
     0.0788   0.0794   0.0796   0.0798   0.0855   0.0863   0.0875   0.0876
     0.0889   0.0906   0.0926   0.0931   0.0992   0.0997   0.1002   0.1005
     0.1056   0.1057   0.1058   0.1059   0.1131   0.1219   0.1224   0.1226
     0.1317   0.1503   0.1504   0.1504   0.1505   0.1594   0.1607   0.1608
     0.1629   0.2089   0.2100   0.2103   0.2105   0.2337   0.2429   0.2433
     0.2445   0.2574   0.2837   0.2927   0.3172   0.3177   0.3258   0.3262
     0.3277   0.3286   0.3390   0.3410   0.3442   0.3444   0.3475   0.3477
     0.3531   0.3604   0.3604   0.3611   0.3611   0.3662   0.3682   0.3685
     0.3686   0.3693   0.3713   0.3723   0.3746   0.3920   0.3969   0.4016
     0.4458   0.4469   0.4487   0.4513   0.4562   0.4567   0.4573   0.4576
     0.4685   0.4685   0.4685   0.4690   0.5061   0.5067   0.5080   0.5087
     0.5090   0.5091   0.5098   0.5100   0.5459   0.5533   0.5534   0.5535
     0.5539   0.5610   0.5652   0.5665   0.5675   0.5678   0.5678   0.5698
     0.5754   0.5755   0.5757   0.5760   0.5894   0.5904   0.5907   0.5909
     0.5990   0.6034   0.6070   0.6075   0.6730   0.6755   0.6761   0.6778
     0.6790   0.6821   0.6822   0.6825   0.6826   0.6828   0.6846   0.6914
     0.6916   0.7014   0.7077   0.7084   0.7275   0.7278   0.7284   0.7286
     0.7294   0.7301   0.7312   0.7312   0.7743   0.7797   0.7819   0.7830
     0.8043   0.8081   0.8106   0.8113   0.8119   0.8173   0.8282   0.8317
     0.8469   0.8470   0.8476   0.8477   0.8686   0.8694   0.8716   0.8729
     0.9246   0.9247   0.9252   0.9252   0.9571   0.9575   0.9587   0.9589
     1.0055   1.0103   1.0117   1.0117   1.0123   1.0199   1.0248   1.0256
[...]
     3.9991   4.2233   4.2235   4.2259   4.2285   4.3117   4.3213   4.3334
     4.3378   4.5095   4.5524   4.5535   4.5563   4.5638   4.5898   4.5923
     4.6190   4.7879   4.8786   4.8836   4.8900   5.0149   5.0461   5.0610
     5.1659   5.1663   5.1690   5.1721   5.2251   5.2724   5.2895   5.3008
     5.3324   5.3333   5.3402   5.3494   5.4962   5.5957   5.7286   5.7322
     5.7448   5.7458   5.7466   5.7483   5.8399   5.8666   5.8862   5.8872
     6.7791   6.7822   6.7825   6.7834   7.1035   7.1131   7.1151   7.1220
     7.1352   7.1511   7.1511   7.1524   7.2471   7.2679   7.2705   7.2727
     7.3594   7.3650   7.3656   7.3657   7.5226   7.6051   7.6063   7.6111
     7.6576   7.9074   7.9347   7.9558   7.9620   7.9792   8.0010   8.0088
     8.2245   8.2362   8.2373   8.2436   8.2439   8.2863   8.3612   8.3641
     8.8875   8.8880   8.8900   8.8911   8.9198   8.9229   8.9233   8.9241
     8.9611   8.9626   8.9643   8.9650   9.1056   9.1102   9.1182   9.1185
     9.3029   9.3250   9.3393   9.3454   9.5145   9.5213   9.5315   9.5495
     9.5624   9.5677   9.5710   9.5724   9.9258   9.9388   9.9676

     the Fermi energy is     3.3202 ev

!    total energy              =  -12707.14230810 Ry
     Harris-Foulkes estimate   =  -12707.14230807 Ry
     estimated scf accuracy    <          3.0E-09 Ry

     The total energy is the sum of the following terms:

     one-electron contribution = -109279.94299092 Ry
     hartree contribution      =   56001.34396289 Ry
     xc contribution           =   -4447.77554181 Ry
     ewald contribution        =   45025.57470884 Ry
     Dispersion Correction     =      -2.98700982 Ry
     smearing contrib. (-TS)   =      -3.35543728 Ry

     convergence has been achieved in  45 iterations

     Writing output data file gc.save

     General routines

     Parallel routines

   This run was terminated on:  17:25: 2  26Mar2017

   JOB DONE.