     Program PWSCF v.5.4.0 starts on 11Mar2017 at 11: 4: 7

     Current dimensions of program PWSCF are:
     Max number of different atomic species (ntypx) = 10
     Max number of k-points (npk) =  40000
     Max angular momentum in pseudopotentials (lmaxx) =  3

     Parameters for Dispersion Correction:
       atom      VdW radius       C_6

        Cu         2.952        374.666
        C_h        2.744         60.710
        C          2.744         60.710

     bravais-lattice index     =            0
     lattice parameter (alat)  =      13.9425  a.u.
     unit-cell volume          =   21209.0878 (a.u.)^3
     number of atoms/cell      =          148
     number of atomic types    =            3
     number of electrons       =      1292.00
     number of Kohn-Sham states=          775
     kinetic-energy cutoff     =      80.0000  Ry
     charge density cutoff     =     320.0000  Ry
     convergence threshold     =      1.0E-08
     mixing beta               =       0.7000
     number of iterations used =            8  local-TF  mixing
     Exchange-correlation      =  SLA  PW   PBX  PBC ( 1  4  3  4 0 0)

     celldm(1)=  13.942539  celldm(2)=   0.000000  celldm(3)=   0.000000
     celldm(4)=   0.000000  celldm(5)=   0.000000  celldm(6)=   0.000000

     crystal axes: (cart. coord. in units of alat)
               a(1) = (   1.000000   0.000000   0.000000 )
               a(2) = (   0.000000   2.309401   0.000000 )
               a(3) = (   0.000000   0.000000   3.388418 )

     reciprocal axes: (cart. coord. in units 2 pi/alat)
               b(1) = (  1.000000  0.000000  0.000000 )
               b(2) = (  0.000000  0.433013  0.000000 )
               b(3) = (  0.000000  0.000000  0.295123 )

     PseudoPot. # 1 for Cu read from file:
     /home/549/hxw549/Short/pseudopotentials/Cu.pbe-n-van_ak.UPF
     MD5 check sum: 601f7c30f7467666bec936e0661ce3e1
     Pseudo is Ultrasoft + core correction, Zval = 11.0
     Generated by new atomic code, or converted to UPF format
     Using radial grid of  867 points,  6 beta functions with:
                l(1) =   0
                l(2) =   0
                l(3) =   1
                l(4) =   1
                l(5) =   2
                l(6) =   2
     Q(r) pseudized with  8 coefficients,  rinner =    1.400   1.400   1.400
                                                       1.400   1.400

     PseudoPot. # 2 for C  read from file:
     /home/549/hxw549/Short/pseudopotentials/C.star1s-pbe-mt_gipaw.UPF
     MD5 check sum: ef0cb3dee31bd9e4ba2a832a2c716264
     Pseudo is Norm-conserving, Zval =  5.0
     Generated by new atomic code, or converted to UPF format
     Using radial grid of 1073 points,  1 beta functions with:
                l(1) =   0

     PseudoPot. # 3 for C  read from file:
     /home/549/hxw549/Short/pseudopotentials/C.pbe-mt_gipaw.UPF
     MD5 check sum: 5ac2f21f2c440b14befe521540822c15
     Pseudo is Norm-conserving, Zval =  4.0
     Generated by new atomic code, or converted to UPF format
     Using radial grid of 1073 points,  1 beta functions with:
                l(1) =   0

     atomic species   valence    mass     pseudopotential
        Cu            11.00    63.54600     Cu( 1.00)
        C_h            5.00    12.01070     C ( 1.00)
        C              4.00    12.01070     C ( 1.00)

      2 Sym. Ops. (no inversion) found

   Cartesian axes

     site n.     atom                  positions (alat units)
         1           Cu  tau(   1) = (   0.0000000   0.0000567   0.9971194  )
         2           Cu  tau(   2) = (   0.2499927   0.2309760   0.9972946  )
         3           Cu  tau(   3) = (   0.5000000   0.0000313   0.9971490  )
         4           Cu  tau(   4) = (   0.7500073   0.2309760   0.9972946  )
         5           Cu  tau(   5) = (   0.0000000   0.4618437   0.9973425  )
         6           Cu  tau(   6) = (   0.2499840   0.6927701   0.9971914  )
         7           Cu  tau(   7) = (   0.5000000   0.4618722   0.9973119  )
         8           Cu  tau(   8) = (   0.7500160   0.6927701   0.9971914  )
         9           Cu  tau(   9) = (   0.0000000   0.9237521   0.9970621  )
        10           Cu  tau(  10) = (   0.2500157   1.1547420   0.9971373  )
        11           Cu  tau(  11) = (   0.5000000   0.9237453   0.9970727  )
        12           Cu  tau(  12) = (   0.7499843   1.1547420   0.9971373  )
        13           Cu  tau(  13) = (   0.0000000   1.3856555   0.9972830  )
        14           Cu  tau(  14) = (   0.2500029   1.6165618   0.9973242  )
        15           Cu  tau(  15) = (   0.5000000   1.3857014   0.9973005  )
        16           Cu  tau(  16) = (   0.7499971   1.6165618   0.9973242  )
        17           Cu  tau(  17) = (   0.0000000   1.8474941   0.9971969  )
        18           Cu  tau(  18) = (   0.2500043   2.0784518   0.9970745  )
        19           Cu  tau(  19) = (   0.5000000   1.8474499   0.9971773  )
        20           Cu  tau(  20) = (   0.7499957   2.0784518   0.9970745  )
        21           Cu  tau(  21) = (   0.0000000   0.2308065   1.2457643  )
        22           Cu  tau(  22) = (   0.2499892  -0.0001010   1.2455764  )
        23           Cu  tau(  23) = (   0.5000000   0.2308938   1.2456746  )
        24           Cu  tau(  24) = (   0.7500108  -0.0001010   1.2455764  )
        25           Cu  tau(  25) = (   0.0000000   0.6929786   1.2456406  )
        26           Cu  tau(  26) = (   0.2499874   0.4619293   1.2457459  )
        27           Cu  tau(  27) = (   0.5000000   0.6929012   1.2456074  )
        28           Cu  tau(  28) = (   0.7500126   0.4619293   1.2457459  )
        29           Cu  tau(  29) = (   0.0000000   1.1546142   1.2455676  )
        30           Cu  tau(  30) = (   0.2499981   0.9237849   1.2455149  )
        31           Cu  tau(  31) = (   0.5000000   1.1545763   1.2455800  )
        32           Cu  tau(  32) = (   0.7500019   0.9237849   1.2455149  )
        33           Cu  tau(  33) = (   0.0000000   1.6166029   1.2456910  )
        34           Cu  tau(  34) = (   0.2500161   1.3855492   1.2457134  )
        35           Cu  tau(  35) = (   0.5000000   1.6166555   1.2458019  )
        36           Cu  tau(  36) = (   0.7499839   1.3855492   1.2457134  )
        37           Cu  tau(  37) = (   0.0000000   2.0784993   1.2455162  )
        38           Cu  tau(  38) = (   0.2500161   1.8476387   1.2456210  )
        39           Cu  tau(  39) = (   0.5000000   2.0784755   1.2455152  )
        40           Cu  tau(  40) = (   0.7499839   1.8476387   1.2456210  )
        41           Cu  tau(  41) = (   0.0000000  -0.0003182   1.4954305  )
        42           Cu  tau(  42) = (   0.2500224   0.2307186   1.4951678  )
        43           Cu  tau(  43) = (   0.5000000  -0.0002059   1.4952775  )
        44           Cu  tau(  44) = (   0.7499776   0.2307186   1.4951678  )
        45           Cu  tau(  45) = (   0.0000000   0.4620254   1.4950571  )
        46           Cu  tau(  46) = (   0.2500339   0.6931225   1.4952807  )
        47           Cu  tau(  47) = (   0.5000000   0.4619896   1.4952144  )
        48           Cu  tau(  48) = (   0.7499661   0.6931225   1.4952807  )
        49           Cu  tau(  49) = (   0.0000000   0.9238798   1.4954544  )
        50           Cu  tau(  50) = (   0.2499708   1.1544329   1.4953374  )
        51           Cu  tau(  51) = (   0.5000000   0.9237633   1.4954072  )
        52           Cu  tau(  52) = (   0.7500292   1.1544329   1.4953374  )
        53           Cu  tau(  53) = (   0.0000000   1.3854453   1.4952066  )
        54           Cu  tau(  54) = (   0.2499861   1.6167017   1.4951298  )
        55           Cu  tau(  55) = (   0.5000000   1.3853760   1.4951346  )
        56           Cu  tau(  56) = (   0.7500139   1.6167017   1.4951298  )
        57           Cu  tau(  57) = (   0.0000000   1.8477718   1.4952308  )
        58           Cu  tau(  58) = (   0.2499930   2.0785254   1.4954090  )
        59           Cu  tau(  59) = (   0.5000000   1.8478762   1.4953503  )
        60           Cu  tau(  60) = (   0.7500070   2.0785254   1.4954090  )
[...]
       105           C   tau( 105) = (   0.3331238   0.0962174   2.4198998  )
       106           C   tau( 106) = (   0.3331280   0.2886629   2.4534452  )
       107           C   tau( 107) = (   0.5000000  -0.0000818   2.3845383  )
       108           C   tau( 108) = (   0.5000000   0.3849277   2.4429275  )
       109           C   tau( 109) = (   0.6668762   0.0962174   2.4198998  )
       110           C   tau( 110) = (   0.6668720   0.2886629   2.4534452  )
       111           C   tau( 111) = (   0.8333677   0.0000435   2.3878590  )
       112           C   tau( 112) = (   0.8335100   0.3848966   2.4473596  )
       113           C   tau( 113) = (   0.0000000   0.6735163   2.3553844  )
       114           C   tau( 114) = (   0.0000000   0.8659398   2.3193316  )
       115           C   tau( 115) = (   0.1664759   0.5773226   2.3882927  )
       116           C   tau( 116) = (   0.1667428   0.9622141   2.3283312  )
       117           C   tau( 117) = (   0.3332094   0.6735984   2.3519146  )
       118           C   tau( 118) = (   0.3332031   0.8660537   2.3188436  )
       119           C   tau( 119) = (   0.5000000   0.5773685   2.3848365  )
       120           C_h tau( 120) = (   0.5000000   0.9623380   2.3274096  )
       121           C   tau( 121) = (   0.6667906   0.6735984   2.3519146  )
       122           C   tau( 122) = (   0.6667969   0.8660537   2.3188436  )
       123           C   tau( 123) = (   0.8335241   0.5773226   2.3882927  )
       124           C   tau( 124) = (   0.8332572   0.9622141   2.3283312  )
       125           C   tau( 125) = (   0.0000000   1.2508867   2.4191408  )
       126           C   tau( 126) = (   0.0000000   1.4433300   2.4518594  )
       127           C   tau( 127) = (   0.1667360   1.1546708   2.3859614  )
       128           C   tau( 128) = (   0.1668939   1.5396104   2.4444049  )
       129           C   tau( 129) = (   0.3335095   1.2509657   2.4217973  )
       130           C   tau( 130) = (   0.3334866   1.4433958   2.4564270  )
       131           C   tau( 131) = (   0.5000000   1.1547731   2.3885773  )
       132           C   tau( 132) = (   0.5000000   1.5396099   2.4488369  )
       133           C   tau( 133) = (   0.6664905   1.2509657   2.4217973  )
       134           C   tau( 134) = (   0.6665134   1.4433958   2.4564270  )
       135           C   tau( 135) = (   0.8332640   1.1546708   2.3859614  )
       136           C   tau( 136) = (   0.8331061   1.5396104   2.4444049  )
       137           C   tau( 137) = (   0.0000000   1.8283510   2.3502882  )
       138           C   tau( 138) = (   0.0000000   2.0207949   2.3185726  )
       139           C   tau( 139) = (   0.1668959   1.7320513   2.3858666  )
       140           C   tau( 140) = (   0.1666186   2.1169980   2.3278568  )
       141           C   tau( 141) = (   0.3334155   1.8282368   2.3543407  )
       142           C   tau( 142) = (   0.3334352   2.0206763   2.3191825  )
       143           C   tau( 143) = (   0.5000000   1.7319961   2.3895667  )
       144           C   tau( 144) = (   0.5000000   2.1168754   2.3283177  )
       145           C   tau( 145) = (   0.6665845   1.8282368   2.3543407  )
       146           C   tau( 146) = (   0.6665648   2.0206763   2.3191825  )
       147           C   tau( 147) = (   0.8331041   1.7320513   2.3858666  )
       148           C   tau( 148) = (   0.8333814   2.1169980   2.3278568  )

     number of k points=     6  gaussian smearing, width (Ry)=  0.1000
                       cart. coord. in units 2pi/alat
        k(    1) = (   0.0000000   0.0000000   0.0000000), wk =   0.2500000
        k(    2) = (   0.0000000  -0.2165064   0.0000000), wk =   0.2500000
        k(    3) = (   0.2500000   0.0000000   0.0000000), wk =   0.5000000
        k(    4) = (   0.2500000  -0.2165064   0.0000000), wk =   0.5000000
        k(    5) = (  -0.5000000   0.0000000   0.0000000), wk =   0.2500000
        k(    6) = (  -0.5000000  -0.2165064   0.0000000), wk =   0.2500000

     Largest allocated arrays     est. size (Mb)     dimensions
     Largest temporary arrays     est. size (Mb)     dimensions

     Initial potential from superposition of free atoms
     Check: negative starting charge=   -0.001810

     starting charge 1266.81751, renormalised to 1292.00000

     negative rho (up, down):  1.846E-03 0.000E+00
     Starting wfc are 1284 randomized atomic wfcs

     Self-consistent Calculation

     iteration #  1     ecut=    80.00 Ry     beta=0.70
     Davidson diagonalization with overlap
     ethr =  1.00E-04,  avg # of iterations = 31.3

     negative rho (up, down):  2.614E+01 0.000E+00

     total energy              =   -9666.87744433 Ry
     Harris-Foulkes estimate   =  -17259.31058573 Ry
     estimated scf accuracy    <  177465.50238639 Ry

[...]

     iteration # 33     ecut=    80.00 Ry     beta=0.70
     Davidson diagonalization with overlap
     c_bands:  1 eigenvalues not converged
     c_bands:  2 eigenvalues not converged
     ethr =  2.39E-06,  avg # of iterations = 14.7

[...]

     iteration # 36     ecut=    80.00 Ry     beta=0.70
     Davidson diagonalization with overlap
     c_bands:  1 eigenvalues not converged
     ethr =  8.49E-08,  avg # of iterations = 10.7

[...]

     total energy              =  -12706.82950808 Ry
     Harris-Foulkes estimate   =  -12706.82950808 Ry
     estimated scf accuracy    <       0.00000001 Ry

     iteration # 46     ecut=    80.00 Ry     beta=0.70
     Davidson diagonalization with overlap
     ethr =  9.76E-13,  avg # of iterations =  2.0

     negative rho (up, down):  2.078E-03 0.000E+00

     End of self-consistent calculation

          k = 0.0000 0.0000 0.0000 (256287 PWs)   bands (ev):

   -17.1052 -16.0787 -15.7599 -15.2623 -14.8451 -14.5583 -14.5041 -14.0983
   -14.0777 -13.8013 -13.7836 -13.3376 -13.1215 -13.1091 -13.0551 -12.7564
   -12.6953 -11.6090 -11.3781 -11.3706 -11.2742 -11.2230 -10.0278  -9.8140
    -9.7662  -9.4135  -9.4067  -8.7985  -8.6940  -8.3768  -8.3052  -7.9538
    -7.8186  -7.7849  -7.6220  -7.3389  -7.3342  -7.1820  -7.1436  -6.3442
    -6.3149  -6.0590  -5.9908  -5.8810  -5.8672  -5.7832  -5.7417  -5.7237
    -5.5992  -5.4980  -5.4534  -4.9977  -4.8662  -4.8656  -4.8172  -4.7227
    -4.4865  -4.4051  -4.2239  -4.0148  -4.0090  -4.0047  -3.9907  -3.9672
    -3.8247  -3.6113  -3.5504  -3.4768  -3.4302  -3.4109  -3.2747  -3.2534
    -3.2338  -3.1712  -3.1169  -3.0661  -3.0243  -3.0238  -3.0041  -2.9286
    -2.8946  -2.8827  -2.8622  -2.7939  -2.7796  -2.7494  -2.7478  -2.7196
    -2.7100  -2.6008  -2.5901  -2.5363  -2.3663  -2.3308  -2.3271  -2.3249
    -2.2342  -2.2124  -2.1807  -2.1771  -2.1743  -2.1741  -2.1701  -2.1488
    -2.1266  -2.0445  -2.0442  -2.0440  -2.0418  -2.0359  -1.9707  -1.8634
    -1.8101  -1.7990  -1.7957  -1.7782  -1.7603  -1.7592  -1.7565  -1.7466
    -1.7139  -1.7015  -1.6919  -1.6800  -1.6788  -1.6313  -1.6034  -1.5881
    -1.5821  -1.5686  -1.5600  -1.5540  -1.5434  -1.5414  -1.5365  -1.5286
    -1.5278  -1.5045  -1.4590  -1.4541  -1.4384  -1.4053  -1.3911  -1.3893
    -1.3853  -1.3749  -1.3219  -1.2892  -1.2836  -1.2727  -1.2363  -1.2327
    -1.2146  -1.2132  -1.2128  -1.1894  -1.1869  -1.1323  -1.1212  -1.1050
    -1.0999  -1.0803  -1.0731  -1.0686  -1.0536  -1.0527  -1.0472  -1.0462
    -1.0447  -1.0429  -1.0401  -1.0359  -1.0344  -1.0247  -1.0004  -0.9811
    -0.9774  -0.9615  -0.9574  -0.9499  -0.9458  -0.9388  -0.8962  -0.8917
    -0.8905  -0.8885  -0.8797  -0.8786  -0.8781  -0.8768  -0.8758  -0.8753
    -0.8712  -0.8706  -0.8704  -0.8659  -0.8654  -0.8647  -0.8548  -0.8473
    -0.8439  -0.8181  -0.7910  -0.7726  -0.7159  -0.7145  -0.7105  -0.7068
    -0.7058  -0.7000  -0.6853  -0.6783  -0.6666  -0.6625  -0.6458  -0.6444
    -0.6384  -0.6365  -0.6203  -0.6140  -0.6139  -0.5865  -0.5861  -0.5845
    -0.5838  -0.5813  -0.5805  -0.5805  -0.5631  -0.5212  -0.5190  -0.4785
    -0.4652  -0.4645  -0.4617  -0.4601  -0.4492  -0.4475  -0.4370  -0.4324
    -0.4304  -0.4283  -0.4278  -0.4264  -0.4259  -0.4248  -0.4105  -0.4095
    -0.4085  -0.4018  -0.3925  -0.3882  -0.3766  -0.3753  -0.3428  -0.3270
    -0.3174  -0.3143  -0.3141  -0.2866  -0.2865  -0.2860  -0.2860  -0.2827
    -0.2814  -0.2731  -0.2661  -0.2654  -0.2528  -0.2511  -0.2494  -0.2426
    -0.2394  -0.2390  -0.2388  -0.2383  -0.2375  -0.2358  -0.2314  -0.2170
    -0.2161  -0.2146  -0.2141  -0.2079  -0.1841  -0.1564  -0.1514  -0.1487
    -0.1421  -0.1414  -0.1148  -0.1144  -0.1079  -0.1049  -0.0967  -0.0887
    -0.0887  -0.0820  -0.0820  -0.0799  -0.0741  -0.0423  -0.0388  -0.0323
    -0.0291  -0.0226  -0.0083  -0.0059  -0.0022  -0.0022   0.0021   0.0075
     0.0124   0.0147   0.0214   0.0219   0.0251   0.0258   0.0263   0.0319
     0.0380   0.0380   0.0423   0.0449   0.0462   0.0541   0.0555   0.0802
     0.0825   0.0930   0.1047   0.1105   0.1278   0.1454   0.1490   0.1648
     0.1819   0.2014   0.2093   0.2113   0.2129   0.2146   0.2164   0.2165
     0.2304   0.2308   0.2339   0.2378   0.2384   0.2404   0.2419   0.2550
     0.2989   0.2995   0.3054   0.3176   0.3193   0.3349   0.3394   0.3477
     0.3486   0.3533   0.3582   0.3583   0.3724   0.3757   0.3906   0.3966
     0.3984   0.4040   0.4073   0.4112   0.4135   0.4284   0.4583   0.4609
     0.4668   0.4675   0.4679   0.4698   0.4703   0.4792   0.4798   0.4918
     0.4941   0.5047   0.5071   0.5083   0.5107   0.5109   0.5122   0.5137
     0.5175   0.5235   0.5252   0.5264   0.5441   0.5446   0.5569   0.5700
     0.5714   0.5758   0.5829   0.5829   0.6017   0.6061   0.6087   0.6144
     0.6195   0.6254   0.6272   0.6282   0.6309   0.6332   0.6351   0.6516
     0.6547   0.6601   0.6612   0.6640   0.6644   0.6681   0.6712   0.6726
     0.6779   0.6848   0.6851   0.6916   0.7107   0.7177   0.7192   0.7220
     0.7221   0.7271   0.7271   0.7307   0.7345   0.7409   0.7410   0.7634
     0.7792   0.7842   0.7855   0.7892   0.7894   0.7900   0.7935   0.7979
     0.7981   0.8044   0.8276   0.8277   0.8485   0.8503   0.8534   0.8537
     0.8545   0.8662   0.8691   0.8775   0.8785   0.8798   0.8818   0.8850
     0.8995   0.9064   0.9091   0.9148   0.9238   0.9241   0.9260   0.9438
     0.9478   0.9514   0.9572   0.9602   0.9664   0.9696   0.9738   0.9764
[...]
     3.8479   3.8554   3.8772   3.8778   3.9398   3.9465   3.9751   3.9759
     3.9890   3.9952   4.0766   4.0993   4.1664   4.2029   4.2146   4.2589
     4.3386   4.3401   4.5151   4.5523   4.5652   4.7253   4.7320   4.7427
     5.2682   5.3025   5.3154   5.3757   5.5723   5.8238   5.8393   5.8925
     5.9146   5.9236   5.9626   6.0950   6.3364   6.3487   6.3508   6.4279
     6.4290   6.4761   6.4951   6.5304   6.5424   6.5696   6.5796   6.6472
     6.7189   6.7217   6.7650   6.7668   6.9496   6.9504   6.9673   7.0105
     7.1408   7.2117   7.2944   7.3239   7.4764   7.6005   7.6518   7.6618
     7.6697   7.7193   7.7373   7.7523   7.7590   8.0266   8.0292   8.0601
     8.0692   8.1341   8.1742   8.2418   8.2573   8.3010   8.3020   8.3085
     8.3135   8.3187   8.3223   8.4014   8.4485   8.4560   8.5081   8.5227
     8.5496   8.6592   8.6752   8.7458   8.7491   8.7574   8.7644   8.8257
     8.8285   8.8557   8.9401   8.9679   9.0791   9.0795   9.1562   9.2372
     9.2643   9.3006   9.3255   9.3432   9.3871   9.5225   9.5637   9.6136
     9.6306   9.6644   9.6910   9.7566   9.8007   9.8105  10.0270

[...]

          k = 0.2500-0.2165 0.0000 (256316 PWs)   bands (ev):

[...]

          k =-0.5000 0.0000 0.0000 (256496 PWs)   bands (ev):

[...]

          k =-0.5000-0.2165 0.0000 (256328 PWs)   bands (ev):

   -16.9890 -15.7842 -15.6147 -15.6058 -15.0930 -15.0104 -14.9248 -14.9139
   -13.8370 -13.6269 -13.5192 -13.4860 -12.4683 -12.3553 -11.8475 -11.8363
   -11.7002 -11.6638 -11.6325 -11.5740 -11.3569 -11.2845 -11.1891 -11.0924
    -9.8346  -9.8061  -9.6418  -9.5042  -9.1114  -8.7513  -8.6843  -8.6376
    -8.2210  -8.1899  -8.0032  -7.9923  -6.4960  -6.2672  -6.2303  -6.0215
    -5.9222  -5.5023  -5.3041  -5.2903  -5.2291  -5.2092  -5.2092  -5.2074
    -5.0937  -5.0186  -4.9828  -4.7539  -4.7483  -4.4881  -4.4373  -4.4308
    -4.2703  -4.2132  -4.2117  -4.2111  -4.2090  -4.1795  -4.0915  -4.0813
    -4.0328  -3.9834  -3.9301  -3.9211  -3.8630  -3.8315  -3.7503  -3.6149
    -3.5670  -3.5505  -3.5357  -3.5032  -3.4069  -3.3826  -3.3721  -3.3645
    -3.1177  -3.0495  -3.0190  -3.0054  -2.6733  -2.6327  -2.6034  -2.6024
    -2.6001  -2.5993  -2.5590  -2.5528  -2.5233  -2.5076  -2.4579  -2.4488
    -2.1829  -2.1309  -2.1288  -2.1264  -2.0781  -2.0773  -2.0598  -2.0538
    -2.0269  -2.0121  -1.9785  -1.9515  -1.8799  -1.8284  -1.8271  -1.8262
    -1.8218  -1.7648  -1.7609  -1.7289  -1.5876  -1.5605  -1.5575  -1.5500
    -1.5161  -1.5160  -1.5158  -1.5158  -1.4882  -1.4607  -1.4579  -1.4570
    -1.4561  -1.4551  -1.4518  -1.4454  -1.4109  -1.4103  -1.4098  -1.4097
    -1.4045  -1.4038  -1.4030  -1.4030  -1.3805  -1.3805  -1.3804  -1.3803
    -1.3565  -1.3421  -1.3373  -1.3332  -1.3276  -1.2682  -1.2604  -1.2592
    -1.2534  -1.2138  -1.2138  -1.2133  -1.2131  -1.2030  -1.2009  -1.2000
    -1.1969  -1.1611  -1.1560  -1.1540  -1.1497  -1.1436  -1.1427  -1.1403
    -1.1391  -1.1380  -1.1368  -1.1364  -1.1153  -1.0809  -1.0803  -1.0802
    -1.0789  -1.0634  -1.0633  -1.0631  -1.0630  -1.0623  -1.0620  -1.0619
    -1.0619  -0.9992  -0.9635  -0.9536  -0.9167  -0.9161  -0.9133  -0.9101
    -0.8768  -0.8760  -0.8760  -0.8758  -0.8544  -0.8369  -0.8094  -0.7981
    -0.7969  -0.7966  -0.7954  -0.7934  -0.7900  -0.7748  -0.7742  -0.7649
    -0.7418  -0.7330  -0.7258  -0.7228  -0.7192  -0.7167  -0.7159  -0.7129
    -0.7106  -0.7103  -0.7017  -0.6947  -0.6830  -0.6824  -0.6697  -0.6296
    -0.5898  -0.5872  -0.5870  -0.5854  -0.5285  -0.5276  -0.5264  -0.5259
    -0.5083  -0.4962  -0.4853  -0.4774  -0.4635  -0.4619  -0.4585  -0.4579
    -0.4553  -0.4545  -0.4491  -0.4345  -0.4168  -0.4163  -0.4156  -0.4155
    -0.3887  -0.3796  -0.3779  -0.3767  -0.3356  -0.2987  -0.2985  -0.2981
    -0.2980  -0.2832  -0.2826  -0.2826  -0.2819  -0.2798  -0.2684  -0.2647
    -0.2606  -0.2385  -0.1974  -0.1830  -0.1828  -0.1821  -0.1813  -0.1804
    -0.1801  -0.1791  -0.1784  -0.1768  -0.1649  -0.1577  -0.1353  -0.1348
    -0.1346  -0.1344  -0.1307  -0.1249  -0.1248  -0.1242  -0.1229  -0.1203
    -0.1198  -0.1195  -0.1153  -0.0594  -0.0555  -0.0552  -0.0535  -0.0340
    -0.0278  -0.0277  -0.0266  -0.0096   0.0119   0.0124   0.0165   0.0241
     0.0490   0.0523   0.0529   0.0537   0.0549   0.0564   0.0584   0.0604
     0.0709   0.0715   0.0727   0.0739   0.0746   0.0789   0.0821   0.0840
     0.0849   0.0853   0.0857   0.0858   0.0998   0.0998   0.1020   0.1022
     0.1263   0.1263   0.1266   0.1267   0.1333   0.1334   0.1341   0.1346
     0.1639   0.1872   0.1874   0.1878   0.1880   0.2172   0.2174   0.2178
     0.2186   0.2246   0.2289   0.2431   0.2548   0.2699   0.2726   0.2880
     0.2979   0.2985   0.3007   0.3075   0.3224   0.3224   0.3229   0.3234
     0.3356   0.3360   0.3361   0.3369   0.3413   0.3417   0.3421   0.3425
     0.3533   0.3543   0.3559   0.3573   0.4171   0.4182   0.4191   0.4194
     0.4321   0.4343   0.4360   0.4363   0.4454   0.4456   0.4458   0.4460
     0.4663   0.4679   0.4682   0.4695   0.4826   0.4837   0.4842   0.4851
     0.5094   0.5133   0.5143   0.5184   0.5264   0.5308   0.5357   0.5382
     0.5383   0.5389   0.5401   0.5410   0.5450   0.5461   0.5481   0.5484
     0.5527   0.5529   0.5542   0.5552   0.5664   0.5700   0.5718   0.5739
     0.5941   0.6083   0.6129   0.6244   0.6363   0.6383   0.6396   0.6397
     0.6513   0.6524   0.6576   0.6581   0.6594   0.6614   0.6630   0.6633
     0.6816   0.6871   0.6915   0.6942   0.7040   0.7042   0.7045   0.7047
     0.7055   0.7061   0.7093   0.7094   0.7569   0.7591   0.7639   0.7648
     0.7840   0.7853   0.7862   0.7871   0.8023   0.8163   0.8203   0.8208
     0.8215   0.8225   0.8246   0.8412   0.8563   0.8585   0.8595   0.8647
     0.8981   0.8988   0.8989   0.8994   0.9196   0.9203   0.9219   0.9225
     0.9686   0.9699   0.9737   0.9754   0.9868   0.9885   0.9897   0.9933
[...]
     3.9105   4.1696   4.1700   4.1742   4.1944   4.2984   4.3157   4.3215
     4.3307   4.3386   4.3879   4.4123   4.4340   4.4704   4.4789   4.5052
     4.6684   4.7394   4.7547   4.8096   4.8798   5.0347   5.0387   5.0511
     5.0981   5.1103   5.1244   5.1592   5.1809   5.2068   5.2105   5.2403
     5.3160   5.3511   5.3816   5.4118   5.4572   5.4710   5.4730   5.4837
     5.7382   5.7617   5.7654   5.7657   5.9600   5.9867   6.0013   6.0094
     6.7036   6.7395   6.7424   6.7431   6.8117   6.9225   6.9279   6.9583
     7.1000   7.1067   7.1081   7.1116   7.2057   7.3048   7.3074   7.3258
     7.3351   7.3419   7.3487   7.3499   7.3609   7.3789   7.3835   7.3899
     7.6593   7.7353   7.7614   7.7641   8.0809   8.1428   8.1730   8.1924
     8.1945   8.2156   8.2241   8.2336   8.3291   8.3778   8.4313   8.4342
     8.8452   8.8623   8.8824   8.8848   8.8999   8.9079   8.9081   8.9093
     8.9393   8.9509   8.9550   8.9600   9.0770   9.1180   9.1245   9.1300
     9.1307   9.1857   9.3035   9.3238   9.3706   9.4027   9.4044   9.4153
     9.4445   9.5740   9.6021   9.6185   9.6300   9.6617   9.7033

     the Fermi energy is     3.2992 ev

!    total energy              =  -12706.82950813 Ry
     Harris-Foulkes estimate   =  -12706.82950808 Ry
     estimated scf accuracy    <          5.1E-09 Ry

     The total energy is the sum of the following terms:

     one-electron contribution = -109289.68251950 Ry
     hartree contribution      =   56005.10273837 Ry
     xc contribution           =   -4446.48367022 Ry
     ewald contribution        =   45030.58993651 Ry
     Dispersion Correction     =      -2.97438890 Ry
     smearing contrib. (-TS)   =      -3.38160439 Ry

     convergence has been achieved in  46 iterations

     Writing output data file gc.save

     General routines

     Parallel routines

   This run was terminated on:  14:39:44  11Mar2017

   JOB DONE.