     Program PWSCF v.5.4.0 starts on  6Oct2017 at 11:20:12

     Current dimensions of program PWSCF are:
     Max number of different atomic species (ntypx) = 10
     Max number of k-points (npk) =  40000
     Max angular momentum in pseudopotentials (lmaxx) =  3
     WARNING: atomic wfc #  2 for atom type 4 has zero norm
     WARNING: atomic wfc #  4 for atom type 4 has zero norm
     WARNING: atomic wfc #  5 for atom type 4 has zero norm

     Parameters for Dispersion Correction:
       atom      VdW radius       C_6

        Cu         2.952        374.666
        C_h        2.744         60.710
        C          2.744         60.710
        O          2.536         24.284
        H          1.892          4.857

     bravais-lattice index     =            0
     lattice parameter (alat)  =      13.9425  a.u.
     unit-cell volume          =   21209.0878 (a.u.)^3
     number of atoms/cell      =          150
     number of atomic types    =            5
     number of electrons       =      1302.00
     number of Kohn-Sham states=          781
     kinetic-energy cutoff     =      80.0000  Ry
     charge density cutoff     =     320.0000  Ry
     convergence threshold     =      1.0E-08
     mixing beta               =       0.7000
     number of iterations used =            8  local-TF  mixing
     Exchange-correlation      =  SLA  PW   PBE  PBE ( 1  4  3  4 0 0)

     celldm(1)=  13.942539  celldm(2)=   0.000000  celldm(3)=   0.000000
     celldm(4)=   0.000000  celldm(5)=   0.000000  celldm(6)=   0.000000

     crystal axes: (cart. coord. in units of alat)
               a(1) = (   1.000000   0.000000   0.000000 )
               a(2) = (   0.000000   2.309401   0.000000 )
               a(3) = (   0.000000   0.000000   3.388418 )

     reciprocal axes: (cart. coord. in units 2 pi/alat)
               b(1) = (  1.000000  0.000000  0.000000 )
               b(2) = (  0.000000  0.433013  0.000000 )
               b(3) = (  0.000000  0.000000  0.295123 )

     PseudoPot. # 1 for Cu read from file:
     /home/549/hxw549/Short/pseudopotentials/Cu.pbe-n-van_ak.UPF
     MD5 check sum: 601f7c30f7467666bec936e0661ce3e1
     Pseudo is Ultrasoft + core correction, Zval = 11.0
     Generated by new atomic code, or converted to UPF format
     Using radial grid of  867 points,  6 beta functions with:
                l(1) =   0
                l(2) =   0
                l(3) =   1
                l(4) =   1
                l(5) =   2
                l(6) =   2
     Q(r) pseudized with  8 coefficients,  rinner =    1.400   1.400   1.400
                                                       1.400   1.400

     PseudoPot. # 2 for C  read from file:
     /home/549/hxw549/Short/pseudopotentials/C.star1s-pbe-mt_gipaw.UPF
     MD5 check sum: ef0cb3dee31bd9e4ba2a832a2c716264
     Pseudo is Norm-conserving, Zval =  5.0
     Generated by new atomic code, or converted to UPF format
     Using radial grid of 1073 points,  1 beta functions with:
                l(1) =   0

     PseudoPot. # 3 for C  read from file:
     /home/549/hxw549/Short/pseudopotentials/C.pbe-mt_gipaw.UPF
     MD5 check sum: 5ac2f21f2c440b14befe521540822c15
     Pseudo is Norm-conserving, Zval =  4.0
     Generated by new atomic code, or converted to UPF format
     Using radial grid of 1073 points,  1 beta functions with:
                l(1) =   0

     PseudoPot. # 4 for O  read from file:
     /home/549/hxw549/Short/pseudopotentials/O.pbe-van_gipaw.UPF
     MD5 check sum: 5ce2a047509d4f331db576c963e74b29
     Pseudo is Ultrasoft, Zval =  6.0
     Generated by new atomic code, or converted to UPF format
     Using radial grid of 1095 points,  4 beta functions with:
                l(1) =   0
                l(2) =   0
                l(3) =   1
                l(4) =   1
     Q(r) pseudized with 0 coefficients

     PseudoPot. # 5 for H  read from file:
     /home/549/hxw549/Short/pseudopotentials/H.pbe-van_ak.UPF
     MD5 check sum: 077eb6d537518a38cb46c6de387227b7
     Pseudo is Ultrasoft, Zval =  1.0
     Generated by new atomic code, or converted to UPF format
     Using radial grid of  615 points,  1 beta functions with:
                l(1) =   0
     Q(r) pseudized with  8 coefficients,  rinner =    0.800

     atomic species   valence    mass     pseudopotential
        Cu            11.00    63.54600     Cu( 1.00)
        C_h            5.00    12.01070     C ( 1.00)
        C              4.00    12.01070     C ( 1.00)
        O              6.00    15.99940     O ( 1.00)
        H              1.00     1.00783     H ( 1.00)

     No symmetry found

   Cartesian axes

     site n.     atom                  positions (alat units)
         1           Cu  tau(   1) = (   0.0000796  -0.0010194   0.9996711  )
         2           Cu  tau(   2) = (   0.2500655   0.2302525   0.9998070  )
         3           Cu  tau(   3) = (   0.5000782  -0.0009871   0.9997096  )
         4           Cu  tau(   4) = (   0.7500925   0.2302455   0.9998059  )
         5           Cu  tau(   5) = (   0.0000785   0.4612871   0.9997269  )
         6           Cu  tau(   6) = (   0.2500641   0.6920697   0.9993800  )
         7           Cu  tau(   7) = (   0.5000814   0.4612918   0.9996504  )
         8           Cu  tau(   8) = (   0.7500985   0.6920755   0.9993862  )
         9           Cu  tau(   9) = (   0.0000831   0.9226495   0.9992261  )
        10           Cu  tau(  10) = (   0.2501082   1.1530621   0.9994448  )
        11           Cu  tau(  11) = (   0.5000823   0.9225993   0.9992402  )
        12           Cu  tau(  12) = (   0.7500588   1.1530635   0.9994423  )
        13           Cu  tau(  13) = (   0.0000837   1.3835599   0.9997329  )
        14           Cu  tau(  14) = (   0.2500624   1.6144357   0.9998048  )
        15           Cu  tau(  15) = (   0.5000842   1.3836349   0.9997726  )
        16           Cu  tau(  16) = (   0.7501032   1.6144320   0.9998040  )
        17           Cu  tau(  17) = (   0.0000797   1.8456347   0.9996583  )
        18           Cu  tau(  18) = (   0.2500996   2.0770019   0.9995635  )
        19           Cu  tau(  19) = (   0.5000828   1.8455838   0.9996249  )
        20           Cu  tau(  20) = (   0.7500601   2.0770024   0.9995695  )
        21           Cu  tau(  21) = (   0.0000762   0.2300880   1.2478020  )
        22           Cu  tau(  22) = (   0.2500749  -0.0011159   1.2475204  )
        23           Cu  tau(  23) = (   0.5000774   0.2302010   1.2477392  )
        24           Cu  tau(  24) = (   0.7500776  -0.0011076   1.2475295  )
        25           Cu  tau(  25) = (   0.0000791   0.6922011   1.2480278  )
        26           Cu  tau(  26) = (   0.2500708   0.4613499   1.2479295  )
        27           Cu  tau(  27) = (   0.5000781   0.6921136   1.2479976  )
        28           Cu  tau(  28) = (   0.7500843   0.4613461   1.2479221  )
        29           Cu  tau(  29) = (   0.0000792   1.1528664   1.2482450  )
        30           Cu  tau(  30) = (   0.2500767   0.9225201   1.2481436  )
        31           Cu  tau(  31) = (   0.5000811   1.1528467   1.2482331  )
        32           Cu  tau(  32) = (   0.7500827   0.9225211   1.2481488  )
        33           Cu  tau(  33) = (   0.0000796   1.6146638   1.2478472  )
        34           Cu  tau(  34) = (   0.2500780   1.3835920   1.2481526  )
        35           Cu  tau(  35) = (   0.5000826   1.6147432   1.2478907  )
        36           Cu  tau(  36) = (   0.7500845   1.3835882   1.2481608  )
        37           Cu  tau(  37) = (   0.0000753   2.0771625   1.2473394  )
        38           Cu  tau(  38) = (   0.2500797   1.8459518   1.2474804  )
        39           Cu  tau(  39) = (   0.5000788   2.0770921   1.2473374  )
        40           Cu  tau(  40) = (   0.7500786   1.8459481   1.2474855  )
        41           Cu  tau(  41) = (   0.0000736  -0.0014157   1.4968003  )
        42           Cu  tau(  42) = (   0.2501054   0.2298053   1.4967075  )
        43           Cu  tau(  43) = (   0.5000753  -0.0013072   1.4965172  )
        44           Cu  tau(  44) = (   0.7500440   0.2298195   1.4967296  )
        45           Cu  tau(  45) = (   0.0000715   0.4610974   1.4969703  )
        46           Cu  tau(  46) = (   0.2500888   0.6919294   1.4977424  )
        47           Cu  tau(  47) = (   0.5000768   0.4610199   1.4971307  )
        48           Cu  tau(  48) = (   0.7500576   0.6919217   1.4977398  )
        49           Cu  tau(  49) = (   0.0000730   0.9224488   1.4981802  )
        50           Cu  tau(  50) = (   0.2499887   1.1529644   1.4978341  )
        51           Cu  tau(  51) = (   0.5000709   0.9223233   1.4980553  )
        52           Cu  tau(  52) = (   0.7501545   1.1529594   1.4978490  )
        53           Cu  tau(  53) = (   0.0000770   1.3839580   1.4973583  )
        54           Cu  tau(  54) = (   0.2500530   1.6153014   1.4967700  )
        55           Cu  tau(  55) = (   0.5000690   1.3839959   1.4971714  )
        56           Cu  tau(  56) = (   0.7500984   1.6153015   1.4967707  )
        57           Cu  tau(  57) = (   0.0000733   1.8464668   1.4964703  )
        58           Cu  tau(  58) = (   0.2500842   2.0772456   1.4966335  )
        59           Cu  tau(  59) = (   0.5000792   1.8465124   1.4966717  )
        60           Cu  tau(  60) = (   0.7500644   2.0772510   1.4966332  )
[...]
       134           C   tau( 134) = (   0.6668966   1.4466375   2.3882526  )
       135           C   tau( 135) = (   0.8336471   1.1579389   2.3824963  )
       136           C   tau( 136) = (   0.8335007   1.5428799   2.3852986  )
       137           C   tau( 137) = (   0.0003615   1.8316508   2.3835264  )
       138           C   tau( 138) = (   0.0003333   2.0241360   2.3864695  )
       139           C   tau( 139) = (   0.1672436   1.7353275   2.3855411  )
       140           C   tau( 140) = (   0.1669289   2.1203047   2.3860356  )
       141           C   tau( 141) = (   0.3337845   1.8314735   2.3877347  )
       142           C   tau( 142) = (   0.3337475   2.0239656   2.3853679  )
       143           C   tau( 143) = (   0.5003620   1.7352461   2.3894686  )
       144           C   tau( 144) = (   0.5003277   2.1201495   2.3841265  )
       145           C   tau( 145) = (   0.6669386   1.8314724   2.3878035  )
       146           C   tau( 146) = (   0.6669171   2.0239714   2.3854075  )
       147           C   tau( 147) = (   0.8334847   1.7353460   2.3856745  )
       148           C   tau( 148) = (   0.8337301   2.1203065   2.3860703  )
       149           C_h tau( 149) = (   0.4817526   0.9548742   3.3884182  )
       150           O   tau( 150) = (   0.3804061   1.0742193   3.3884182  )

     number of k points=     6  gaussian smearing, width (Ry)=  0.1000
                       cart. coord. in units 2pi/alat
        k(    1) = (   0.0000000   0.0000000   0.0000000), wk =   0.2500000
        k(    2) = (   0.0000000  -0.2165064   0.0000000), wk =   0.2500000
        k(    3) = (   0.2500000   0.0000000   0.0000000), wk =   0.5000000
        k(    4) = (   0.2500000  -0.2165064   0.0000000), wk =   0.5000000
        k(    5) = (  -0.5000000   0.0000000   0.0000000), wk =   0.2500000
        k(    6) = (  -0.5000000  -0.2165064   0.0000000), wk =   0.2500000

     Largest allocated arrays     est. size (Mb)     dimensions
     Largest temporary arrays     est. size (Mb)     dimensions

     Initial potential from superposition of free atoms
     Check: negative starting charge=   -0.001301

     starting charge 1276.31751, renormalised to 1302.00000

     negative rho (up, down):  1.327E-03 0.000E+00
     Starting wfc are 1296 randomized atomic wfcs

     Self-consistent Calculation

     iteration #  1     ecut=    80.00 Ry     beta=0.70
     Davidson diagonalization with overlap
     ethr =  1.00E-04,  avg # of iterations = 21.8

     negative rho (up, down):  3.538E+01 0.000E+00

     total energy              =   -8986.08625193 Ry
     Harris-Foulkes estimate   =  -17264.01945256 Ry
     estimated scf accuracy    <  181725.18471523 Ry

[...]

     iteration # 33     ecut=    80.00 Ry     beta=0.70
     Davidson diagonalization with overlap
     c_bands:  1 eigenvalues not converged
     c_bands:  1 eigenvalues not converged
     ethr =  1.18E-07,  avg # of iterations = 12.8

[...]

     iteration # 34     ecut=    80.00 Ry     beta=0.70
     Davidson diagonalization with overlap
     c_bands:  1 eigenvalues not converged
     ethr =  8.34E-08,  avg # of iterations =  9.8

[...]

     total energy              =  -12750.24531586 Ry
     Harris-Foulkes estimate   =  -12750.24531586 Ry
     estimated scf accuracy    <       0.00000003 Ry

     iteration # 43     ecut=    80.00 Ry     beta=0.70
     Davidson diagonalization with overlap
     ethr =  2.15E-12,  avg # of iterations =  3.0

     negative rho (up, down):  1.378E-03 0.000E+00

     End of self-consistent calculation

          k = 0.0000 0.0000 0.0000 (256287 PWs)   bands (ev):

   -22.7238 -16.2987 -15.9283 -15.9243 -14.8204 -14.8199 -14.3358 -14.3340
   -13.9748 -13.9734 -13.9714 -13.9692 -13.0212 -13.0188 -12.9043 -12.9040
   -12.9026 -12.9019 -11.2109 -11.2097 -11.2090 -11.2071 -11.0012 -10.0061
    -9.3242  -9.3235  -9.3219  -9.3213  -8.4466  -8.4452  -8.4440  -8.4413
    -7.4555  -7.4532  -7.3807  -7.3801  -7.3781  -7.3772  -7.3642  -7.3638
    -7.1866  -5.9698  -5.8250  -5.8226  -5.8212  -5.8185  -5.6607  -5.6599
    -5.6597  -5.6587  -5.4367  -5.4342  -5.0342  -4.5739  -4.5700  -4.5523
    -4.5418  -4.5165  -4.5107  -4.5104  -4.1820  -4.1817  -4.0549  -4.0535
    -3.9388  -3.9387  -3.3706  -3.3699  -3.3689  -3.3683  -3.3582  -3.3575
    -3.2217  -3.2080  -3.2064  -3.1725  -3.1723  -3.1211  -2.9596  -2.9590
    -2.9572  -2.9566  -2.8589  -2.8564  -2.7593  -2.7592  -2.7229  -2.6825
    -2.6779  -2.6167  -2.6159  -2.5527  -2.5514  -2.5514  -2.5501  -2.3148
    -2.3139  -2.3119  -2.3115  -2.2526  -2.2524  -2.1431  -2.1430  -2.1035
    -2.1033  -2.1029  -2.1027  -1.9862  -1.9844  -1.9788  -1.9786  -1.9710
    -1.9710  -1.9700  -1.9700  -1.9020  -1.8464  -1.8458  -1.7883  -1.7269
    -1.6871  -1.6869  -1.6862  -1.6861  -1.6324  -1.6322  -1.6215  -1.6087
    -1.6064  -1.5457  -1.5375  -1.5130  -1.5125  -1.5106  -1.5088  -1.4765
    -1.4762  -1.4751  -1.4749  -1.4655  -1.4636  -1.3837  -1.3831  -1.3635
    -1.3198  -1.3183  -1.3180  -1.3164  -1.3017  -1.2478  -1.2117  -1.2100
    -1.2005  -1.1970  -1.1933  -1.1607  -1.1599  -1.1409  -1.1384  -1.1160
    -1.1126  -1.0689  -1.0623  -1.0416  -1.0413  -1.0401  -1.0393  -0.9958
    -0.9929  -0.9804  -0.9718  -0.9711  -0.9696  -0.9695  -0.9681  -0.9678
    -0.9634  -0.9632  -0.9448  -0.9091  -0.9077  -0.8995  -0.8747  -0.8742
    -0.8707  -0.8655  -0.8650  -0.8640  -0.8064  -0.8051  -0.8042  -0.8040
    -0.8028  -0.8021  -0.8014  -0.7987  -0.7981  -0.7972  -0.7971  -0.7948
    -0.7924  -0.7911  -0.7911  -0.7742  -0.7742  -0.7334  -0.7257  -0.7250
    -0.7223  -0.7216  -0.6376  -0.6376  -0.6330  -0.6327  -0.6054  -0.6042
    -0.5898  -0.5898  -0.5660  -0.5659  -0.5505  -0.5502  -0.5494  -0.5489
    -0.5347  -0.5321  -0.5309  -0.5118  -0.5114  -0.5092  -0.5087  -0.5004
    -0.4995  -0.4875  -0.4869  -0.4398  -0.4396  -0.3866  -0.3864  -0.3744
    -0.3727  -0.3721  -0.3711  -0.3550  -0.3549  -0.3513  -0.3513  -0.3510
    -0.3509  -0.3481  -0.3480  -0.3323  -0.3323  -0.3175  -0.3173  -0.3171
    -0.3168  -0.3002  -0.2995  -0.2469  -0.2444  -0.2440  -0.2373  -0.2371
    -0.2103  -0.2102  -0.2093  -0.2092  -0.1919  -0.1916  -0.1903  -0.1903
    -0.1893  -0.1652  -0.1648  -0.1640  -0.1634  -0.1585  -0.1583  -0.1577
    -0.1575  -0.1560  -0.1526  -0.1359  -0.1352  -0.1349  -0.1337  -0.1332
    -0.1143  -0.0656  -0.0655  -0.0632  -0.0630  -0.0567  -0.0140  -0.0136
    -0.0121  -0.0115  -0.0092  -0.0090  -0.0087  -0.0085  -0.0083   0.0089
     0.0098   0.0448   0.0457   0.0502   0.0506   0.0520   0.0763   0.0764
     0.0799   0.0801   0.0810   0.0845   0.0999   0.1007   0.1010   0.1012
     0.1023   0.1030   0.1182   0.1184   0.1188   0.1188   0.1311   0.1315
     0.1316   0.1324   0.1553   0.1562   0.1712   0.1734   0.1896   0.1904
     0.2215   0.2215   0.2233   0.2238   0.2479   0.2514   0.2908   0.2912
     0.2921   0.2929   0.2938   0.2972   0.3274   0.3295   0.3298   0.3306
     0.3312   0.3330   0.3403   0.3413   0.3789   0.3983   0.3983   0.4028
     0.4029   0.4046   0.4064   0.4064   0.4305   0.4402   0.4411   0.4413
     0.4414   0.4752   0.4775   0.4778   0.4786   0.4791   0.4943   0.4955
     0.4962   0.4969   0.5363   0.5366   0.5499   0.5505   0.5511   0.5527
     0.5530   0.5652   0.5825   0.5847   0.5874   0.5895   0.5905   0.5921
     0.5923   0.5925   0.5990   0.6017   0.6022   0.6107   0.6118   0.6121
     0.6130   0.6214   0.6216   0.6497   0.6630   0.6631   0.6722   0.6740
     0.7053   0.7058   0.7061   0.7065   0.7090   0.7091   0.7092   0.7093
     0.7205   0.7215   0.7317   0.7355   0.7360   0.7374   0.7399   0.7451
     0.7452   0.7566   0.7573   0.7635   0.7772   0.7776   0.7778   0.7782
     0.7888   0.7893   0.8007   0.8043   0.8060   0.8060   0.8098   0.8112
     0.8112   0.8141   0.8249   0.8529   0.8576   0.8594   0.8627   0.8629
     0.8679   0.8755   0.8765   0.8810   0.8813   0.8815   0.8822   0.9129
     0.9136   0.9291   0.9299   0.9333   0.9335   0.9479   0.9480   0.9566
     0.9579   0.9592   0.9598   0.9643   0.9793   0.9930   0.9955   0.9961
     0.9978   0.9983   0.9996   1.0178   1.0237   1.0331   1.0426   1.0426
[...]
     3.9580   4.0223   4.0551   4.0574   4.0597   4.0642   4.0643   4.0645
     4.0660   4.0719   4.0847   4.0877   4.3188   4.3196   4.3236   4.3258
     4.4944   4.6608   4.8171   5.0403   5.0423   5.0690   5.0725   5.3656
     5.4834   5.4899   5.4991   5.7908   5.7922   5.7936   5.8017   5.9846
     5.9884   6.4276   6.4299   6.4472   6.4687   6.5480   6.5497   6.5516
     6.5557   6.7142   6.7148   6.7162   6.7182   6.8745   6.8789   6.8807
     6.8837   6.9595   6.9793   7.1157   7.1527   7.1555   7.1576   7.1585
     7.1638   7.4155   7.4197   7.5890   7.6375   7.6380   7.7571   7.7573
     7.7714   7.7734   8.0705   8.1204   8.1944   8.2063   8.2762   8.2964
     8.3895   8.3898   8.3959   8.3961   8.4455   8.4480   8.4988   8.5075
     8.6130   8.6763   8.6823   8.6847   8.6860   8.7248   8.7470   8.7491
     8.7500   8.7523   8.7789   8.9093   8.9104   8.9129   8.9165   9.0096
     9.1907   9.1926   9.1937   9.1955   9.1955   9.2157   9.4075   9.4113
     9.4696   9.5404   9.5817   9.5883   9.6185   9.6254   9.6374   9.6376
     9.8875  10.0998  10.1003  10.1985  10.2094

[...]

          k = 0.2500-0.2165 0.0000 (256316 PWs)   bands (ev):

[...]

          k =-0.5000 0.0000 0.0000 (256496 PWs)   bands (ev):

[...]

          k =-0.5000-0.2165 0.0000 (256328 PWs)   bands (ev):

   -22.7238 -15.7152 -15.7143 -15.7056 -15.7051 -14.9735 -14.9732 -14.9730
   -14.9722 -13.5259 -13.5249 -13.5245 -13.5240 -11.9019 -11.9016 -11.8937
   -11.8932 -11.4586 -11.4579 -11.4559 -11.4551 -11.2795 -11.2789 -11.2747
   -11.2741  -9.5811  -9.5802  -9.5763  -9.5753  -8.6177  -8.6161  -8.6074
    -8.6073  -7.8498  -7.8492  -7.8455  -7.8453  -7.1867  -5.7725  -5.7715
    -5.7712  -5.7709  -5.1502  -5.1498  -5.1460  -5.1457  -5.1312  -5.1310
    -5.1307  -5.1304  -4.9232  -4.9227  -4.9084  -4.9083  -4.5739  -4.5702
    -4.2762  -4.2753  -4.2603  -4.2595  -4.1493  -4.1492  -4.1490  -4.1489
    -4.0480  -4.0475  -4.0471  -4.0468  -3.7972  -3.7970  -3.7899  -3.7896
    -3.5013  -3.5009  -3.4979  -3.4975  -3.4965  -3.4959  -3.4945  -3.4934
    -3.3825  -3.3819  -3.3810  -3.3798  -2.9772  -2.9770  -2.9768  -2.9762
    -2.7224  -2.5305  -2.5304  -2.5301  -2.5300  -2.4656  -2.4655  -2.4645
    -2.4642  -2.1741  -2.1731  -2.1718  -2.1716  -2.0433  -2.0431  -2.0430
    -2.0430  -1.9595  -1.9589  -1.9583  -1.9582  -1.8704  -1.8693  -1.8647
    -1.8634  -1.7539  -1.7538  -1.7526  -1.7523  -1.6515  -1.6508  -1.6504
    -1.6495  -1.4439  -1.4438  -1.4437  -1.4436  -1.4275  -1.4271  -1.4269
    -1.4266  -1.4008  -1.4002  -1.3975  -1.3971  -1.3815  -1.3815  -1.3789
    -1.3789  -1.3347  -1.3344  -1.3343  -1.3341  -1.3323  -1.3321  -1.3315
    -1.3311  -1.3074  -1.3073  -1.3071  -1.3069  -1.2564  -1.2560  -1.2554
    -1.2553  -1.1778  -1.1777  -1.1765  -1.1764  -1.1392  -1.1392  -1.1391
    -1.1389  -1.1207  -1.1207  -1.1205  -1.1203  -1.0684  -1.0683  -1.0682
    -1.0681  -1.0627  -1.0627  -1.0627  -1.0626  -1.0307  -1.0306  -1.0304
    -1.0303  -1.0069  -1.0068  -1.0058  -1.0055  -0.9897  -0.9897  -0.9887
    -0.9885  -0.9847  -0.9846  -0.9840  -0.9839  -0.8872  -0.8862  -0.8716
    -0.8708  -0.8297  -0.8296  -0.8288  -0.8286  -0.8025  -0.8025  -0.8020
    -0.8020  -0.7171  -0.7170  -0.7167  -0.7164  -0.7121  -0.7118  -0.7116
    -0.7114  -0.7086  -0.7085  -0.7082  -0.7080  -0.6484  -0.6484  -0.6481
    -0.6479  -0.6363  -0.6361  -0.6348  -0.6346  -0.6152  -0.6151  -0.6140
    -0.6137  -0.5193  -0.5191  -0.5187  -0.5186  -0.5136  -0.5136  -0.5125
    -0.5124  -0.4452  -0.4450  -0.4447  -0.4447  -0.3948  -0.3947  -0.3945
    -0.3943  -0.3739  -0.3738  -0.3735  -0.3733  -0.3477  -0.3475  -0.3456
    -0.3454  -0.3353  -0.3353  -0.3347  -0.3344  -0.2951  -0.2948  -0.2940
    -0.2937  -0.2218  -0.2217  -0.2205  -0.2204  -0.2043  -0.2043  -0.2036
    -0.2035  -0.1870  -0.1868  -0.1861  -0.1861  -0.1031  -0.1030  -0.1027
    -0.1026  -0.0989  -0.0989  -0.0982  -0.0981  -0.0960  -0.0959  -0.0956
    -0.0955  -0.0560  -0.0559  -0.0558  -0.0558  -0.0440  -0.0439  -0.0433
    -0.0433  -0.0415  -0.0414  -0.0412  -0.0412   0.0282   0.0283   0.0293
     0.0295   0.0525   0.0525   0.0534   0.0535   0.1047   0.1051   0.1093
     0.1094   0.1222   0.1228   0.1277   0.1280   0.1377   0.1379   0.1387
     0.1387   0.1433   0.1434   0.1455   0.1457   0.1461   0.1466   0.1479
     0.1480   0.1562   0.1563   0.1579   0.1581   0.1630   0.1631   0.1653
     0.1654   0.1789   0.1789   0.1794   0.1796   0.2077   0.2078   0.2082
     0.2083   0.2171   0.2172   0.2177   0.2179   0.2645   0.2648   0.2656
     0.2657   0.2976   0.2976   0.2977   0.2979   0.3665   0.3680   0.3733
     0.3738   0.3815   0.3816   0.3834   0.3835   0.3978   0.3983   0.3984
     0.3987   0.4135   0.4137   0.4151   0.4154   0.4157   0.4160   0.4171
     0.4173   0.4236   0.4243   0.4252   0.4254   0.4344   0.4354   0.4367
     0.4376   0.4586   0.4595   0.4620   0.4628   0.5100   0.5104   0.5108
     0.5113   0.5138   0.5139   0.5154   0.5156   0.5261   0.5262   0.5266
     0.5266   0.5625   0.5628   0.5644   0.5645   0.5648   0.5651   0.5658
     0.5659   0.6102   0.6104   0.6105   0.6108   0.6219   0.6220   0.6228
     0.6228   0.6284   0.6285   0.6296   0.6299   0.6311   0.6312   0.6313
     0.6319   0.6475   0.6477   0.6483   0.6484   0.6645   0.6645   0.6651
     0.6651   0.7331   0.7337   0.7358   0.7363   0.7373   0.7376   0.7381
     0.7389   0.7483   0.7484   0.7490   0.7494   0.7680   0.7681   0.7723
     0.7724   0.7851   0.7851   0.7861   0.7861   0.7879   0.7881   0.7884
     0.7885   0.8392   0.8393   0.8410   0.8412   0.8676   0.8679   0.8687
     0.8689   0.8940   0.8941   0.8959   0.8962   0.9030   0.9034   0.9037
     0.9039   0.9281   0.9285   0.9306   0.9308   0.9804   0.9805   0.9816
     0.9817   1.0145   1.0146   1.0157   1.0159   1.0677   1.0679   1.0689
[...]
     4.2820   4.2852   4.2857   4.4031   4.4050   4.4110   4.4137   4.6237
     4.6245   4.6264   4.6272   4.6560   4.6564   4.6637   4.6646   4.9605
     4.9621   4.9640   4.9654   5.1292   5.1305   5.1576   5.1577   5.2361
     5.2367   5.2411   5.2416   5.3734   5.3762   5.3962   5.3975   5.4233
     5.4255   5.4270   5.4285   5.7990   5.8010   5.8017   5.8018   5.8115
     5.8126   5.8229   5.8233   5.9672   5.9693   5.9759   5.9768   6.8333
     6.8336   6.8393   6.8395   7.1860   7.1870   7.1896   7.1909   7.2205
     7.2207   7.2219   7.2220   7.3561   7.3574   7.3594   7.3595   7.4255
     7.4257   7.4261   7.4262   7.6910   7.6917   7.6954   7.6961   8.0373
     8.0420   8.0474   8.0481   8.1185   8.1203   8.1276   8.1306   8.3016
     8.3043   8.3050   8.3118   8.3129   8.3583   8.4312   8.4412   8.8732
     8.9550   8.9618   8.9619   8.9622   8.9625   8.9780   8.9809   8.9819
     8.9849   9.0318   9.0320   9.0323   9.0326   9.1246   9.1502   9.3610
     9.3865   9.4013   9.4263   9.6030   9.6040   9.6145   9.6242   9.6246
     9.6542   9.6547   9.6550   9.6554   9.7005

     the Fermi energy is     3.3791 ev

!    total energy              =  -12750.24531582 Ry
     Harris-Foulkes estimate   =  -12750.24531586 Ry
     estimated scf accuracy    <          9.1E-09 Ry

     The total energy is the sum of the following terms:

     one-electron contribution = -107362.05310740 Ry
     hartree contribution      =   55050.29945282 Ry
     xc contribution           =   -4457.98962989 Ry
     ewald contribution        =   44025.90527102 Ry
     Dispersion Correction     =      -2.99632571 Ry
     smearing contrib. (-TS)   =      -3.41097666 Ry

     convergence has been achieved in  43 iterations

     Writing output data file gc.save

     General routines

     Parallel routines

   This run was terminated on:  18:10:44   6Oct2017

   JOB DONE.