     Program PWSCF v.5.4.0 starts on  7Nov2017 at 13:25:29

     Current dimensions of program PWSCF are:
     Max number of different atomic species (ntypx) = 10
     Max number of k-points (npk) =  40000
     Max angular momentum in pseudopotentials (lmaxx) =  3
     WARNING: atomic wfc #  2 for atom type 4 has zero norm
     WARNING: atomic wfc #  4 for atom type 4 has zero norm
     WARNING: atomic wfc #  5 for atom type 4 has zero norm

     Parameters for Dispersion Correction:
       atom      VdW radius       C_6

        Cu         2.952        374.666
        C_h        2.744         60.710
        C          2.744         60.710
        O          2.536         24.284
        H          1.892          4.857

     bravais-lattice index     =            0
     lattice parameter (alat)  =      13.9425  a.u.
     unit-cell volume          =   21209.0878 (a.u.)^3
     number of atoms/cell      =          102
     number of atomic types    =            5
     number of electrons       =      1110.00
     number of Kohn-Sham states=          666
     kinetic-energy cutoff     =      80.0000  Ry
     charge density cutoff     =     320.0000  Ry
     convergence threshold     =      1.0E-08
     mixing beta               =       0.7000
     number of iterations used =            8  local-TF  mixing
     Exchange-correlation      =  SLA  PW   PBE  PBE ( 1  4  3  4 0 0)

     celldm(1)=  13.942539  celldm(2)=   0.000000  celldm(3)=   0.000000
     celldm(4)=   0.000000  celldm(5)=   0.000000  celldm(6)=   0.000000

     crystal axes: (cart. coord. in units of alat)
               a(1) = (   1.000000   0.000000   0.000000 )
               a(2) = (   0.000000   2.309401   0.000000 )
               a(3) = (   0.000000   0.000000   3.388418 )

     reciprocal axes: (cart. coord. in units 2 pi/alat)
               b(1) = (  1.000000  0.000000  0.000000 )
               b(2) = (  0.000000  0.433013  0.000000 )
               b(3) = (  0.000000  0.000000  0.295123 )

     PseudoPot. # 1 for Cu read from file:
     /home/549/hxw549/Short/pseudopotentials/Cu.pbe-n-van_ak.UPF
     MD5 check sum: 601f7c30f7467666bec936e0661ce3e1
     Pseudo is Ultrasoft + core correction, Zval = 11.0
     Generated by new atomic code, or converted to UPF format
     Using radial grid of  867 points,  6 beta functions with:
                l(1) =   0
                l(2) =   0
                l(3) =   1
                l(4) =   1
                l(5) =   2
                l(6) =   2
     Q(r) pseudized with  8 coefficients,  rinner =    1.400   1.400   1.400
                                                       1.400   1.400

     PseudoPot. # 2 for C  read from file:
     /home/549/hxw549/Short/pseudopotentials/C.star1s-pbe-mt_gipaw.UPF
     MD5 check sum: ef0cb3dee31bd9e4ba2a832a2c716264
     Pseudo is Norm-conserving, Zval =  5.0
     Generated by new atomic code, or converted to UPF format
     Using radial grid of 1073 points,  1 beta functions with:
                l(1) =   0

     PseudoPot. # 3 for C  read from file:
     /home/549/hxw549/Short/pseudopotentials/C.pbe-mt_gipaw.UPF
     MD5 check sum: 5ac2f21f2c440b14befe521540822c15
     Pseudo is Norm-conserving, Zval =  4.0
     Generated by new atomic code, or converted to UPF format
     Using radial grid of 1073 points,  1 beta functions with:
                l(1) =   0

     PseudoPot. # 4 for O  read from file:
     /home/549/hxw549/Short/pseudopotentials/O.pbe-van_gipaw.UPF
     MD5 check sum: 5ce2a047509d4f331db576c963e74b29
     Pseudo is Ultrasoft, Zval =  6.0
     Generated by new atomic code, or converted to UPF format
     Using radial grid of 1095 points,  4 beta functions with:
                l(1) =   0
                l(2) =   0
                l(3) =   1
                l(4) =   1
     Q(r) pseudized with 0 coefficients

     PseudoPot. # 5 for H  read from file:
     /home/549/hxw549/Short/pseudopotentials/H.pbe-van_ak.UPF
     MD5 check sum: 077eb6d537518a38cb46c6de387227b7
     Pseudo is Ultrasoft, Zval =  1.0
     Generated by new atomic code, or converted to UPF format
     Using radial grid of  615 points,  1 beta functions with:
                l(1) =   0
     Q(r) pseudized with  8 coefficients,  rinner =    0.800

     atomic species   valence    mass     pseudopotential
        Cu            11.00    63.54600     Cu( 1.00)
        C_h            5.00    12.01070     C ( 1.00)
        C              4.00    12.01070     C ( 1.00)
        O              6.00    15.99940     O ( 1.00)
        H              1.00     1.00783     H ( 1.00)

     No symmetry found

   Cartesian axes

     site n.     atom                  positions (alat units)
         1           Cu  tau(   1) = (   0.0000796  -0.0010194   0.9996711  )
         2           Cu  tau(   2) = (   0.2500655   0.2302525   0.9998070  )
         3           Cu  tau(   3) = (   0.5000782  -0.0009871   0.9997096  )
         4           Cu  tau(   4) = (   0.7500925   0.2302455   0.9998059  )
         5           Cu  tau(   5) = (   0.0000785   0.4612871   0.9997269  )
         6           Cu  tau(   6) = (   0.2500641   0.6920697   0.9993800  )
         7           Cu  tau(   7) = (   0.5000814   0.4612918   0.9996504  )
         8           Cu  tau(   8) = (   0.7500985   0.6920755   0.9993862  )
         9           Cu  tau(   9) = (   0.0000831   0.9226495   0.9992261  )
        10           Cu  tau(  10) = (   0.2501082   1.1530621   0.9994448  )
        11           Cu  tau(  11) = (   0.5000823   0.9225993   0.9992402  )
        12           Cu  tau(  12) = (   0.7500588   1.1530635   0.9994423  )
        13           Cu  tau(  13) = (   0.0000837   1.3835599   0.9997329  )
        14           Cu  tau(  14) = (   0.2500624   1.6144357   0.9998048  )
        15           Cu  tau(  15) = (   0.5000842   1.3836349   0.9997726  )
        16           Cu  tau(  16) = (   0.7501032   1.6144320   0.9998040  )
        17           Cu  tau(  17) = (   0.0000797   1.8456347   0.9996583  )
        18           Cu  tau(  18) = (   0.2500996   2.0770019   0.9995635  )
        19           Cu  tau(  19) = (   0.5000828   1.8455838   0.9996249  )
        20           Cu  tau(  20) = (   0.7500601   2.0770024   0.9995695  )
        21           Cu  tau(  21) = (   0.0000762   0.2300880   1.2478020  )
        22           Cu  tau(  22) = (   0.2500749  -0.0011159   1.2475204  )
        23           Cu  tau(  23) = (   0.5000774   0.2302010   1.2477392  )
        24           Cu  tau(  24) = (   0.7500776  -0.0011076   1.2475295  )
        25           Cu  tau(  25) = (   0.0000791   0.6922011   1.2480278  )
        26           Cu  tau(  26) = (   0.2500708   0.4613499   1.2479295  )
        27           Cu  tau(  27) = (   0.5000781   0.6921136   1.2479976  )
        28           Cu  tau(  28) = (   0.7500843   0.4613461   1.2479221  )
        29           Cu  tau(  29) = (   0.0000792   1.1528664   1.2482450  )
        30           Cu  tau(  30) = (   0.2500767   0.9225201   1.2481436  )
        31           Cu  tau(  31) = (   0.5000811   1.1528467   1.2482331  )
        32           Cu  tau(  32) = (   0.7500827   0.9225211   1.2481488  )
        33           Cu  tau(  33) = (   0.0000796   1.6146638   1.2478472  )
        34           Cu  tau(  34) = (   0.2500780   1.3835920   1.2481526  )
        35           Cu  tau(  35) = (   0.5000826   1.6147432   1.2478907  )
        36           Cu  tau(  36) = (   0.7500845   1.3835882   1.2481608  )
        37           Cu  tau(  37) = (   0.0000753   2.0771625   1.2473394  )
        38           Cu  tau(  38) = (   0.2500797   1.8459518   1.2474804  )
        39           Cu  tau(  39) = (   0.5000788   2.0770921   1.2473374  )
        40           Cu  tau(  40) = (   0.7500786   1.8459481   1.2474855  )
        41           Cu  tau(  41) = (   0.0000736  -0.0014157   1.4968003  )
        42           Cu  tau(  42) = (   0.2501054   0.2298053   1.4967075  )
        43           Cu  tau(  43) = (   0.5000753  -0.0013072   1.4965172  )
        44           Cu  tau(  44) = (   0.7500440   0.2298195   1.4967296  )
        45           Cu  tau(  45) = (   0.0000715   0.4610974   1.4969703  )
        46           Cu  tau(  46) = (   0.2500888   0.6919294   1.4977424  )
        47           Cu  tau(  47) = (   0.5000768   0.4610199   1.4971307  )
        48           Cu  tau(  48) = (   0.7500576   0.6919217   1.4977398  )
        49           Cu  tau(  49) = (   0.0000730   0.9224488   1.4981802  )
        50           Cu  tau(  50) = (   0.2499887   1.1529644   1.4978341  )
        51           Cu  tau(  51) = (   0.5000709   0.9223233   1.4980553  )
        52           Cu  tau(  52) = (   0.7501545   1.1529594   1.4978490  )
        53           Cu  tau(  53) = (   0.0000770   1.3839580   1.4973583  )
        54           Cu  tau(  54) = (   0.2500530   1.6153014   1.4967700  )
        55           Cu  tau(  55) = (   0.5000690   1.3839959   1.4971714  )
        56           Cu  tau(  56) = (   0.7500984   1.6153015   1.4967707  )
        57           Cu  tau(  57) = (   0.0000733   1.8464668   1.4964703  )
        58           Cu  tau(  58) = (   0.2500842   2.0772456   1.4966335  )
        59           Cu  tau(  59) = (   0.5000792   1.8465124   1.4966717  )
        60           Cu  tau(  60) = (   0.7500644   2.0772510   1.4966332  )
[...]
        86           Cu  tau(  86) = (   0.2514505   0.6901905   1.9922810  )
        87           Cu  tau(  87) = (   0.5000863   0.4587665   1.9928792  )
        88           Cu  tau(  88) = (   0.7486661   0.6902270   1.9924293  )
        89           Cu  tau(  89) = (   0.0000432   0.9207000   1.9928486  )
        90           Cu  tau(  90) = (   0.2487672   1.1547418   1.9923022  )
        91           Cu  tau(  91) = (   0.5000624   0.9240642   1.9932645  )
        92           Cu  tau(  92) = (   0.7513422   1.1547327   1.9922105  )
        93           Cu  tau(  93) = (   0.0000302   1.3866843   1.9926055  )
        94           Cu  tau(  94) = (   0.2503901   1.6157236   1.9912853  )
        95           Cu  tau(  95) = (   0.5000722   1.3850823   1.9909882  )
        96           Cu  tau(  96) = (   0.7497148   1.6157477   1.9912993  )
        97           Cu  tau(  97) = (   0.0000745   1.8457983   1.9931296  )
        98           Cu  tau(  98) = (   0.2496101   2.0772360   1.9921726  )
        99           Cu  tau(  99) = (   0.5000544   1.8462656   1.9910722  )
       100           Cu  tau( 100) = (   0.7505374   2.0772188   1.9921776  )
       101           C_h tau( 101) = (   0.4817526   0.9548742   3.3884182  )
       102           O   tau( 102) = (   0.3804061   1.0742193   3.3884182  )

     number of k points=     6  gaussian smearing, width (Ry)=  0.1000
                       cart. coord. in units 2pi/alat
        k(    1) = (   0.0000000   0.0000000   0.0000000), wk =   0.2500000
        k(    2) = (   0.0000000  -0.2165064   0.0000000), wk =   0.2500000
        k(    3) = (   0.2500000   0.0000000   0.0000000), wk =   0.5000000
        k(    4) = (   0.2500000  -0.2165064   0.0000000), wk =   0.5000000
        k(    5) = (  -0.5000000   0.0000000   0.0000000), wk =   0.2500000
        k(    6) = (  -0.5000000  -0.2165064   0.0000000), wk =   0.2500000

     Largest allocated arrays     est. size (Mb)     dimensions
     Largest temporary arrays     est. size (Mb)     dimensions

     Initial potential from superposition of free atoms
     Check: negative starting charge=   -0.001999

     starting charge 1108.31757, renormalised to 1110.00000

     negative rho (up, down):  2.002E-03 0.000E+00
     Starting wfc are  912 randomized atomic wfcs

     Self-consistent Calculation

     iteration #  1     ecut=    80.00 Ry     beta=0.70
     Davidson diagonalization with overlap
     ethr =  1.00E-04,  avg # of iterations = 16.3

     negative rho (up, down):  3.545E-01 0.000E+00

     total energy              =  -12194.07647135 Ry
     Harris-Foulkes estimate   =  -12211.50873197 Ry
     estimated scf accuracy    <      89.02459930 Ry

[...]

     iteration #  7     ecut=    80.00 Ry     beta=0.70
     Davidson diagonalization with overlap
     c_bands:  1 eigenvalues not converged
     ethr =  1.56E-05,  avg # of iterations = 10.7

[...]

     iteration #  9     ecut=    80.00 Ry     beta=0.70
     Davidson diagonalization with overlap
     c_bands:  1 eigenvalues not converged
     ethr =  2.02E-06,  avg # of iterations = 12.0

[...]

     total energy              =  -12202.04509624 Ry
     Harris-Foulkes estimate   =  -12202.04509622 Ry
     estimated scf accuracy    <       0.00000002 Ry

     iteration # 25     ecut=    80.00 Ry     beta=0.70
     Davidson diagonalization with overlap
     ethr =  2.22E-12,  avg # of iterations =  2.0

     negative rho (up, down):  2.273E-03 0.000E+00

     End of self-consistent calculation

          k = 0.0000 0.0000 0.0000 (256287 PWs)   bands (ev):

   -24.5847  -9.0094  -7.8158  -7.2826  -7.2799  -6.6850  -6.4073  -6.4042
    -6.1801  -6.1769  -5.7856  -5.7856  -5.2068  -5.2061  -5.0542  -4.8117
    -4.8112  -4.8092  -4.8087  -4.8075  -4.8074  -4.6071  -4.6040  -4.5378
    -4.3008  -4.2999  -4.0922  -4.0914  -4.0896  -4.0892  -3.9986  -3.9985
    -3.9656  -3.9654  -3.9650  -3.9648  -3.8285  -3.8285  -3.8277  -3.8277
    -3.7842  -3.6537  -3.5882  -3.5355  -3.5355  -3.5347  -3.5346  -3.5342
    -3.5342  -3.4829  -3.4699  -3.4668  -3.4223  -3.4146  -3.3760  -3.3758
    -3.3746  -3.3745  -3.3742  -3.3727  -3.3384  -3.3382  -3.3267  -3.3247
    -3.2738  -3.2733  -3.2240  -3.1632  -3.1098  -3.1029  -3.1026  -3.1023
    -3.1021  -3.0703  -3.0696  -3.0612  -3.0224  -3.0214  -3.0029  -3.0003
    -2.9767  -2.9743  -2.8580  -2.8580  -2.8494  -2.8494  -2.8489  -2.8486
    -2.8310  -2.8299  -2.8245  -2.8244  -2.8192  -2.8191  -2.8172  -2.8169
    -2.8162  -2.8159  -2.8107  -2.8004  -2.7527  -2.7490  -2.7489  -2.7215
    -2.7203  -2.7040  -2.6975  -2.6668  -2.6664  -2.6660  -2.6655  -2.6634
    -2.6625  -2.6604  -2.6598  -2.6597  -2.6578  -2.6531  -2.6531  -2.6521
    -2.6495  -2.6476  -2.6400  -2.6399  -2.5883  -2.4961  -2.4959  -2.4946
    -2.4944  -2.4468  -2.4468  -2.4456  -2.4404  -2.4210  -2.4205  -2.4191
    -2.4189  -2.4179  -2.4176  -2.3823  -2.3734  -2.3729  -2.3709  -2.3703
    -2.3553  -2.3543  -2.3387  -2.3383  -2.2928  -2.2927  -2.2448  -2.2445
    -2.2271  -2.2255  -2.2243  -2.2231  -2.2202  -2.2201  -2.2124  -2.2122
    -2.2120  -2.2118  -2.2020  -2.2019  -2.1923  -2.1923  -2.1811  -2.1811
    -2.1800  -2.1799  -2.1554  -2.1548  -2.0985  -2.0982  -2.0931  -2.0899
    -2.0871  -2.0737  -2.0737  -2.0729  -2.0728  -2.0513  -2.0512  -2.0465
    -2.0463  -2.0324  -2.0320  -2.0318  -2.0314  -2.0310  -2.0173  -2.0170
    -2.0164  -2.0162  -2.0022  -1.9991  -1.9918  -1.9912  -1.9900  -1.9894
    -1.9551  -1.9544  -1.9193  -1.9190  -1.9149  -1.9148  -1.9106  -1.8700
    -1.8700  -1.8696  -1.8695  -1.8612  -1.8608  -1.8527  -1.8515  -1.8513
    -1.8512  -1.8511  -1.8205  -1.8195  -1.8095  -1.8020  -1.8009  -1.7783
    -1.7781  -1.7774  -1.7769  -1.7763  -1.7720  -1.7663  -1.7656  -1.7484
    -1.7483  -1.7458  -1.7455  -1.7371  -1.7371  -1.7362  -1.7360  -1.7223
    -1.7217  -1.7214  -1.7209  -1.7102  -1.7091  -1.6684  -1.6682  -1.6291
    -1.6288  -1.6287  -1.6283  -1.6232  -1.6192  -1.5637  -1.5619  -1.5614
    -1.5613  -1.5597  -1.5588  -1.5546  -1.5544  -1.5131  -1.5130  -1.5126
    -1.5124  -1.4856  -1.4854  -1.4830  -1.4558  -1.4557  -1.4554  -1.4552
    -1.4382  -1.4357  -1.4240  -1.4079  -1.4068  -1.4060  -1.4058  -1.3966
    -1.3740  -1.3735  -1.3731  -1.3727  -1.3545  -1.3538  -1.3536  -1.3525
    -1.3262  -1.3261  -1.3059  -1.3057  -1.3044  -1.3042  -1.2808  -1.2784
    -1.2644  -1.2629  -1.2626  -1.2609  -1.2601  -1.2598  -1.2587  -1.2538
    -1.2532  -1.2522  -1.2507  -1.2505  -1.2501  -1.2495  -1.2493  -1.2492
    -1.2261  -1.2244  -1.2066  -1.1911  -1.1900  -1.1668  -1.1654  -1.1607
    -1.1606  -1.1527  -1.1526  -1.1415  -1.1413  -1.1410  -1.1407  -1.1288
    -1.1148  -1.1147  -1.1141  -1.1141  -1.1138  -1.1125  -1.1004  -1.0968
    -1.0846  -1.0843  -1.0837  -1.0829  -1.0808  -1.0808  -1.0686  -1.0674
    -1.0591  -1.0583  -1.0582  -1.0559  -1.0497  -1.0496  -1.0323  -1.0311
    -1.0148  -0.9975  -0.9974  -0.9908  -0.9906  -0.9693  -0.9688  -0.9686
    -0.9680  -0.9418  -0.9413  -0.9301  -0.9301  -0.9273  -0.9268  -0.9024
    -0.9023  -0.9013  -0.9008  -0.9003  -0.8990  -0.8830  -0.8725  -0.8724
    -0.8717  -0.8714  -0.8713  -0.8712  -0.8652  -0.8623  -0.8616  -0.8504
    -0.8500  -0.8263  -0.8250  -0.8166  -0.8151  -0.8146  -0.8105  -0.8061
    -0.8057  -0.7881  -0.7757  -0.7756  -0.7721  -0.7720  -0.7661  -0.7660
    -0.7503  -0.7502  -0.7497  -0.7496  -0.7484  -0.7450  -0.7450  -0.7081
    -0.7080  -0.7049  -0.7039  -0.7025  -0.7016  -0.6994  -0.6986  -0.6961
    -0.6960  -0.6960  -0.6955  -0.6951  -0.6707  -0.6699  -0.6692  -0.6686
    -0.6681  -0.6658  -0.6641  -0.6641  -0.6311  -0.6299  -0.6265  -0.6262
    -0.6258  -0.6255  -0.6062  -0.6058  -0.5896  -0.5894  -0.5871  -0.5864
    -0.5771  -0.5575  -0.5569  -0.5567  -0.5564  -0.5502  -0.5386  -0.5385
    -0.5179  -0.5179  -0.5176  -0.5174  -0.5133  -0.5130  -0.5119  -0.5109
    -0.5081  -0.5011  -0.4930  -0.4917  -0.4875  -0.4871  -0.4871  -0.4868
    -0.4864  -0.4861  -0.4747  -0.4745  -0.4739  -0.4738  -0.4601  -0.4600
    -0.4586  -0.4569  -0.4563  -0.4532  -0.4494  -0.4258  -0.4251  -0.4234
[...]
     0.6638   0.8955   0.8959   0.8959   0.8960   1.1867   1.6640   1.6642
     1.9991   1.9993   2.0285   2.0324   2.0331   2.0340   2.0344   2.0349
     2.1581   2.1636   2.1646   2.1655   2.1969   2.1971   2.1977   2.1977
     2.2310   2.2321   2.3593   2.3942   2.3944   2.3952   2.3962   2.9483
     3.4054   3.4093   3.4952   3.5018   3.7884   3.7886   3.9163   3.9165
     4.1062   4.1086   4.4258   4.4263   4.5988   4.5996   4.6004   4.6012
     4.6196   4.6649   4.8793   4.8807   4.8818   4.8829   5.1236   5.1252
     5.1268   5.1283   5.2397   5.2468   5.5536   5.5566   5.5836   5.5842
     5.8713   5.8715   5.8741   5.8745   6.2682   6.2687   6.3018   6.3302
     6.3327   6.3881   6.5194   6.5195   6.5526   6.5536   6.5543   6.5562
     6.6978   6.7794   6.7953   6.7956   6.7981   6.7983   6.9051   6.9440
     7.0183   7.0191   7.0192   7.0198   7.2255   7.2262   7.2281   7.2291
     7.2381   7.2525   7.2725   7.3017   7.3053   7.5658   7.5688   7.7737
     7.7739   7.8112   7.8821   8.0264   8.2374   8.2380   8.3496   8.3702
     8.3932   8.4031

[...]

          k = 0.2500-0.2165 0.0000 (256316 PWs)   bands (ev):

[...]

          k =-0.5000 0.0000 0.0000 (256496 PWs)   bands (ev):

[...]

          k =-0.5000-0.2165 0.0000 (256328 PWs)   bands (ev):

   -24.5847  -9.0095  -6.9783  -6.9783  -6.9777  -6.9774  -6.4073  -6.4044
    -5.9969  -5.9967  -5.9965  -5.9965  -5.8976  -5.8973  -5.8972  -5.8970
    -5.0494  -5.0490  -5.0488  -5.0486  -4.5374  -4.3868  -4.3867  -4.3866
    -4.3865  -4.3856  -4.3853  -4.3842  -4.3841  -3.8776  -3.8774  -3.8770
    -3.8769  -3.8654  -3.8651  -3.8644  -3.8644  -3.6133  -3.6132  -3.6120
    -3.6117  -3.3930  -3.3930  -3.3929  -3.3927  -3.3063  -3.3062  -3.3061
    -3.3060  -3.2754  -3.2751  -3.2728  -3.2725  -3.2449  -3.2448  -3.2426
    -3.2426  -3.1943  -3.1940  -3.1932  -3.1929  -3.1904  -3.1901  -3.1899
    -3.1898  -3.1711  -3.1710  -3.1707  -3.1706  -3.1094  -3.1090  -3.1084
    -3.1083  -3.0540  -3.0538  -3.0529  -3.0528  -3.0018  -3.0018  -3.0016
    -3.0015  -2.9670  -2.9670  -2.9665  -2.9663  -2.9357  -2.9357  -2.9353
    -2.9350  -2.9328  -2.9328  -2.9325  -2.9324  -2.9232  -2.9232  -2.9231
    -2.9230  -2.8679  -2.8679  -2.8668  -2.8665  -2.8518  -2.8518  -2.8507
    -2.8505  -2.8422  -2.8421  -2.8416  -2.8414  -2.6743  -2.6742  -2.6734
    -2.6731  -2.6647  -2.6647  -2.6643  -2.6642  -2.5964  -2.5962  -2.5959
    -2.5956  -2.5732  -2.5731  -2.5729  -2.5725  -2.5580  -2.5579  -2.5577
    -2.5576  -2.5111  -2.5111  -2.5108  -2.5106  -2.4868  -2.4865  -2.4856
    -2.4854  -2.4663  -2.4662  -2.4651  -2.4648  -2.3565  -2.3564  -2.3549
    -2.3549  -2.3324  -2.3320  -2.3316  -2.3314  -2.2998  -2.2995  -2.2992
    -2.2991  -2.2504  -2.2503  -2.2500  -2.2498  -2.2259  -2.2258  -2.2254
    -2.2251  -2.1899  -2.1898  -2.1893  -2.1891  -2.1704  -2.1702  -2.1688
    -2.1684  -2.1084  -2.1083  -2.1074  -2.1070  -2.0807  -2.0805  -2.0793
    -2.0792  -2.0633  -2.0632  -2.0625  -2.0625  -2.0381  -2.0377  -2.0371
    -2.0371  -1.9776  -1.9774  -1.9774  -1.9773  -1.9518  -1.9517  -1.9515
    -1.9514  -1.9500  -1.9498  -1.9497  -1.9495  -1.9203  -1.9202  -1.9201
    -1.9201  -1.9032  -1.9030  -1.9021  -1.9020  -1.8984  -1.8983  -1.8980
    -1.8979  -1.8222  -1.8222  -1.8213  -1.8211  -1.7947  -1.7947  -1.7937
    -1.7936  -1.7419  -1.7417  -1.7397  -1.7392  -1.7240  -1.7239  -1.7228
    -1.7228  -1.7115  -1.7113  -1.7078  -1.7072  -1.6987  -1.6983  -1.6962
    -1.6960  -1.6900  -1.6900  -1.6885  -1.6884  -1.6873  -1.6871  -1.6861
    -1.6861  -1.6784  -1.6784  -1.6783  -1.6781  -1.6455  -1.6454  -1.6450
    -1.6449  -1.6289  -1.6288  -1.6283  -1.6282  -1.5952  -1.5949  -1.5939
    -1.5938  -1.5773  -1.5770  -1.5754  -1.5751  -1.5576  -1.5575  -1.5573
    -1.5572  -1.4739  -1.4734  -1.4719  -1.4717  -1.4628  -1.4624  -1.4622
    -1.4618  -1.4484  -1.4482  -1.4461  -1.4460  -1.4364  -1.4363  -1.4362
    -1.4361  -1.4237  -1.4236  -1.4232  -1.4232  -1.3474  -1.3473  -1.3465
    -1.3465  -1.3351  -1.3351  -1.3342  -1.3342  -1.3336  -1.3334  -1.3329
    -1.3327  -1.2971  -1.2969  -1.2964  -1.2960  -1.2942  -1.2941  -1.2936
    -1.2935  -1.2929  -1.2927  -1.2913  -1.2911  -1.2413  -1.2412  -1.2404
    -1.2401  -1.2353  -1.2353  -1.2340  -1.2338  -1.2232  -1.2231  -1.2230
    -1.2229  -1.2048  -1.2047  -1.2035  -1.2034  -1.1743  -1.1741  -1.1734
    -1.1734  -1.1654  -1.1653  -1.1649  -1.1649  -1.1221  -1.1220  -1.1214
    -1.1211  -1.1196  -1.1196  -1.1183  -1.1182  -1.1042  -1.1039  -1.1020
    -1.1015  -1.0706  -1.0704  -1.0683  -1.0680  -1.0659  -1.0659  -1.0654
    -1.0652  -1.0456  -1.0455  -1.0442  -1.0442  -1.0289  -1.0288  -1.0285
    -1.0283  -0.9894  -0.9892  -0.9890  -0.9890  -0.9559  -0.9558  -0.9556
    -0.9555  -0.9403  -0.9402  -0.9397  -0.9396  -0.8746  -0.8745  -0.8734
    -0.8734  -0.8308  -0.8308  -0.8305  -0.8304  -0.8136  -0.8134  -0.8132
    -0.8131  -0.8066  -0.8065  -0.8058  -0.8057  -0.7710  -0.7710  -0.7705
    -0.7702  -0.7620  -0.7620  -0.7612  -0.7612  -0.7603  -0.7602  -0.7601
    -0.7600  -0.7599  -0.7597  -0.7596  -0.7592  -0.7323  -0.7322  -0.7318
    -0.7318  -0.7226  -0.7224  -0.7207  -0.7206  -0.7033  -0.7030  -0.7029
    -0.7026  -0.6884  -0.6884  -0.6876  -0.6876  -0.6763  -0.6762  -0.6747
    -0.6747  -0.6635  -0.6634  -0.6628  -0.6627  -0.6032  -0.6031  -0.6018
    -0.6018  -0.5983  -0.5982  -0.5974  -0.5972  -0.5939  -0.5938  -0.5936
    -0.5936  -0.5870  -0.5869  -0.5863  -0.5861  -0.5737  -0.5736  -0.5735
    -0.5735  -0.5201  -0.5199  -0.5195  -0.5193  -0.5185  -0.5184  -0.5184
    -0.5183  -0.5134  -0.5133  -0.5127  -0.5126  -0.4753  -0.4753  -0.4752
    -0.4751  -0.4434  -0.4433  -0.4428  -0.4426  -0.4416  -0.4416  -0.4413
    -0.4411  -0.4391  -0.4390  -0.4389  -0.4388  -0.4372  -0.4371  -0.4364
[...]
     1.2170   1.6464   1.6465   1.6466   1.6467   1.8305   1.8310   1.8331
     1.8331   2.1264   2.1264   2.1271   2.1272   2.2304   2.2360   2.3765
     2.3771   2.3830   2.3836   2.4284   2.4285   2.4305   2.4307   2.7137
     2.7140   2.7150   2.7152   2.8976   2.8979   2.9013   2.9013   3.3648
     3.3650   3.3652   3.3657   3.3742   3.3745   3.3764   3.3771   3.4342
     3.4347   3.4352   3.4356   3.8618   3.8623   3.8719   3.8730   3.9239
     3.9240   3.9248   3.9248   4.9712   4.9717   4.9774   4.9777   5.2799
     5.2800   5.2808   5.2821   5.2983   5.2992   5.3033   5.3049   5.3096
     5.3099   5.3137   5.3137   5.5425   5.5427   5.5429   5.5430   5.6678
     5.6683   5.6689   5.6694   6.1014   6.1015   6.1016   6.1020   6.4210
     6.4212   6.4243   6.4248   7.0283   7.0847   7.0849   7.0856   7.0858
     7.1022   7.1064   7.1084   7.1105   7.1250   7.1607   7.1608   7.1611
     7.1611   7.2636   7.2771   7.4723   7.5172   7.6066   7.6194   7.6323
     7.6332   7.6345   7.6348   7.6858   7.6859   7.6928   7.6931   7.7998
     7.8963   8.1118

     the Fermi energy is     1.5142 ev

!    total energy              =  -12202.04509625 Ry
     Harris-Foulkes estimate   =  -12202.04509624 Ry
     estimated scf accuracy    <          4.0E-09 Ry

     The total energy is the sum of the following terms:

     one-electron contribution = -109314.75811586 Ry
     hartree contribution      =   55882.68695429 Ry
     xc contribution           =   -4288.66446872 Ry
     ewald contribution        =   45524.29323328 Ry
     Dispersion Correction     =      -2.37245620 Ry
     smearing contrib. (-TS)   =      -3.23024303 Ry

     convergence has been achieved in  25 iterations

     Writing output data file gc.save

     General routines

     Parallel routines

   This run was terminated on:  16: 7:39   7Nov2017

   JOB DONE.