     Program PWSCF v.5.4.0 starts on 28Feb2018 at  8:27:22

     Current dimensions of program PWSCF are:
     Max number of different atomic species (ntypx) = 10
     Max number of k-points (npk) =  40000
     Max angular momentum in pseudopotentials (lmaxx) =  3
     WARNING: atomic wfc #  2 for atom type 4 has zero norm
     WARNING: atomic wfc #  4 for atom type 4 has zero norm
     WARNING: atomic wfc #  5 for atom type 4 has zero norm

     Parameters for Dispersion Correction:
       atom      VdW radius       C_6

        Cu         2.952        374.666
        C_h        2.744         60.710
        C          2.744         60.710
        O          2.536         24.284
        H          1.892          4.857

     bravais-lattice index     =            0
     lattice parameter (alat)  =      13.9425  a.u.
     unit-cell volume          =   21209.0878 (a.u.)^3
     number of atoms/cell      =          148
     number of atomic types    =            5
     number of electrons       =      1292.00
     number of Kohn-Sham states=          775
     kinetic-energy cutoff     =      80.0000  Ry
     charge density cutoff     =     320.0000  Ry
     convergence threshold     =      1.0E-08
     mixing beta               =       0.7000
     number of iterations used =            8  local-TF  mixing
     Exchange-correlation      =  SLA  PW   PBE  PBE ( 1  4  3  4 0 0)

     celldm(1)=  13.942539  celldm(2)=   0.000000  celldm(3)=   0.000000
     celldm(4)=   0.000000  celldm(5)=   0.000000  celldm(6)=   0.000000

     crystal axes: (cart. coord. in units of alat)
               a(1) = (   1.000000   0.000000   0.000000 )
               a(2) = (   0.000000   2.309401   0.000000 )
               a(3) = (   0.000000   0.000000   3.388418 )

     reciprocal axes: (cart. coord. in units 2 pi/alat)
               b(1) = (  1.000000  0.000000  0.000000 )
               b(2) = (  0.000000  0.433013  0.000000 )
               b(3) = (  0.000000  0.000000  0.295123 )

     PseudoPot. # 1 for Cu read from file:
     /home/549/hxw549/Short/pseudopotentials/Cu.pbe-n-van_ak.UPF
     MD5 check sum: 601f7c30f7467666bec936e0661ce3e1
     Pseudo is Ultrasoft + core correction, Zval = 11.0
     Generated by new atomic code, or converted to UPF format
     Using radial grid of  867 points,  6 beta functions with:
                l(1) =   0
                l(2) =   0
                l(3) =   1
                l(4) =   1
                l(5) =   2
                l(6) =   2
     Q(r) pseudized with  8 coefficients,  rinner =    1.400   1.400   1.400
                                                       1.400   1.400

     PseudoPot. # 2 for C  read from file:
     /home/549/hxw549/Short/pseudopotentials/C.star1s-pbe-mt_gipaw.UPF
     MD5 check sum: ef0cb3dee31bd9e4ba2a832a2c716264
     Pseudo is Norm-conserving, Zval =  5.0
     Generated by new atomic code, or converted to UPF format
     Using radial grid of 1073 points,  1 beta functions with:
                l(1) =   0

     PseudoPot. # 3 for C  read from file:
     /home/549/hxw549/Short/pseudopotentials/C.pbe-mt_gipaw.UPF
     MD5 check sum: 5ac2f21f2c440b14befe521540822c15
     Pseudo is Norm-conserving, Zval =  4.0
     Generated by new atomic code, or converted to UPF format
     Using radial grid of 1073 points,  1 beta functions with:
                l(1) =   0

     PseudoPot. # 4 for O  read from file:
     /home/549/hxw549/Short/pseudopotentials/O.pbe-van_gipaw.UPF
     MD5 check sum: 5ce2a047509d4f331db576c963e74b29
     Pseudo is Ultrasoft, Zval =  6.0
     Generated by new atomic code, or converted to UPF format
     Using radial grid of 1095 points,  4 beta functions with:
                l(1) =   0
                l(2) =   0
                l(3) =   1
                l(4) =   1
     Q(r) pseudized with 0 coefficients

     PseudoPot. # 5 for H  read from file:
     /home/549/hxw549/Short/pseudopotentials/H.pbe-van_ak.UPF
     MD5 check sum: 077eb6d537518a38cb46c6de387227b7
     Pseudo is Ultrasoft, Zval =  1.0
     Generated by new atomic code, or converted to UPF format
     Using radial grid of  615 points,  1 beta functions with:
                l(1) =   0
     Q(r) pseudized with  8 coefficients,  rinner =    0.800

     atomic species   valence    mass     pseudopotential
        Cu            11.00    63.54600     Cu( 1.00)
        C_h            5.00    12.01070     C ( 1.00)
        C              4.00    12.01070     C ( 1.00)
        O              6.00    15.99940     O ( 1.00)
        H              1.00     1.00783     H ( 1.00)

     No symmetry found

   Cartesian axes

     site n.     atom                  positions (alat units)
         1           Cu  tau(   1) = (   0.0000842  -0.0003681   0.9999582  )
         2           Cu  tau(   2) = (   0.2500548   0.2313457   0.9998843  )
         3           Cu  tau(   3) = (   0.5000576  -0.0002607   0.9999865  )
         4           Cu  tau(   4) = (   0.7500833   0.2313139   0.9998641  )
         5           Cu  tau(   5) = (   0.0000630   0.4624576   0.9996374  )
         6           Cu  tau(   6) = (   0.2500574   0.6931393   0.9991054  )
         7           Cu  tau(   7) = (   0.5000697   0.4624370   0.9995248  )
         8           Cu  tau(   8) = (   0.7500716   0.6931484   0.9991088  )
         9           Cu  tau(   9) = (   0.0000622   0.9236166   0.9988218  )
        10           Cu  tau(  10) = (   0.2500643   1.1539091   0.9989623  )
        11           Cu  tau(  11) = (   0.5000640   0.9235821   0.9987715  )
        12           Cu  tau(  12) = (   0.7500634   1.1539179   0.9989606  )
        13           Cu  tau(  13) = (   0.0000687   1.3841458   0.9994650  )
        14           Cu  tau(  14) = (   0.2500837   1.6145936   0.9999104  )
        15           Cu  tau(  15) = (   0.5000627   1.3841804   0.9994855  )
        16           Cu  tau(  16) = (   0.7500522   1.6145705   0.9999235  )
        17           Cu  tau(  17) = (   0.0000612   1.8455769   1.0000095  )
        18           Cu  tau(  18) = (   0.2500741   2.0771549   1.0000108  )
        19           Cu  tau(  19) = (   0.5000791   1.8455049   1.0000850  )
        20           Cu  tau(  20) = (   0.7500687   2.0771896   1.0000020  )
        21           Cu  tau(  21) = (   0.0000704   0.2315434   1.2478653  )
        22           Cu  tau(  22) = (   0.2500664  -0.0002381   1.2475273  )
        23           Cu  tau(  23) = (   0.5000670   0.2316783   1.2479035  )
        24           Cu  tau(  24) = (   0.7500740  -0.0002273   1.2475423  )
        25           Cu  tau(  25) = (   0.0000692   0.6936868   1.2480512  )
        26           Cu  tau(  26) = (   0.2500874   0.4630175   1.2481231  )
        27           Cu  tau(  27) = (   0.5000643   0.6936369   1.2480478  )
        28           Cu  tau(  28) = (   0.7500461   0.4629896   1.2480760  )
        29           Cu  tau(  29) = (   0.0000655   1.1534501   1.2482728  )
        30           Cu  tau(  30) = (   0.2500957   0.9236477   1.2480367  )
        31           Cu  tau(  31) = (   0.5000669   1.1533940   1.2482530  )
        32           Cu  tau(  32) = (   0.7500350   0.9236609   1.2480361  )
        33           Cu  tau(  33) = (   0.0000688   1.6141455   1.2484967  )
        34           Cu  tau(  34) = (   0.2500811   1.3834824   1.2485944  )
        35           Cu  tau(  35) = (   0.5000677   1.6141108   1.2487066  )
        36           Cu  tau(  36) = (   0.7500538   1.3834640   1.2486243  )
        37           Cu  tau(  37) = (   0.0000721   2.0771959   1.2475848  )
        38           Cu  tau(  38) = (   0.2500753   1.8454353   1.2480641  )
        39           Cu  tau(  39) = (   0.5000696   2.0772392   1.2474654  )
        40           Cu  tau(  40) = (   0.7500644   1.8454540   1.2480357  )
        41           Cu  tau(  41) = (   0.0000552  -0.0003437   1.4963069  )
        42           Cu  tau(  42) = (   0.2501594   0.2316922   1.4966729  )
        43           Cu  tau(  43) = (   0.5000801  -0.0003239   1.4961498  )
        44           Cu  tau(  44) = (   0.7499692   0.2317424   1.4967073  )
        45           Cu  tau(  45) = (   0.0000623   0.4634405   1.4974589  )
        46           Cu  tau(  46) = (   0.2501391   0.6941193   1.4986964  )
        47           Cu  tau(  47) = (   0.5000667   0.4635838   1.4978574  )
        48           Cu  tau(  48) = (   0.7499975   0.6940653   1.4985995  )
        49           Cu  tau(  49) = (   0.0000719   0.9236097   1.4991718  )
        50           Cu  tau(  50) = (   0.2500634   1.1527743   1.4992825  )
        51           Cu  tau(  51) = (   0.5000695   0.9235140   1.4993108  )
        52           Cu  tau(  52) = (   0.7500770   1.1527397   1.4993345  )
        53           Cu  tau(  53) = (   0.0000750   1.3828780   1.4988430  )
        54           Cu  tau(  54) = (   0.2500890   1.6138847   1.4980387  )
        55           Cu  tau(  55) = (   0.5000679   1.3824979   1.4990271  )
        56           Cu  tau(  56) = (   0.7500488   1.6139412   1.4979863  )
        57           Cu  tau(  57) = (   0.0000808   1.8455483   1.4970029  )
        58           Cu  tau(  58) = (   0.2499997   2.0773826   1.4963591  )
        59           Cu  tau(  59) = (   0.5000580   1.8459184   1.4969695  )
        60           Cu  tau(  60) = (   0.7501390   2.0773614   1.4963585  )
[...]
       105           C   tau( 105) = (   0.3332165   0.0983228   2.3831609  )
       106           C   tau( 106) = (   0.3332256   0.2906221   2.3844894  )
       107           C   tau( 107) = (   0.5000598   0.0019732   2.3803645  )
       108           C   tau( 108) = (   0.5000831   0.3875023   2.3852626  )
       109           C   tau( 109) = (   0.6668708   0.0983910   2.3827119  )
       110           C   tau( 110) = (   0.6669726   0.2907066   2.3839420  )
       111           C   tau( 111) = (   0.8333707   0.0021311   2.3842294  )
       112           C   tau( 112) = (   0.8335622   0.3868739   2.3852090  )
       113           C   tau( 113) = (  -0.0000664   0.6753953   2.3854927  )
       114           C   tau( 114) = (  -0.0000530   0.8677380   2.3850831  )
       115           C   tau( 115) = (   0.1662822   0.5790995   2.3858133  )
       116           C   tau( 116) = (   0.1669701   0.9636455   2.3943290  )
       117           C   tau( 117) = (   0.3328676   0.6759619   2.3925700  )
       118           C   tau( 118) = (   0.3306870   0.8664276   2.4033686  )
       119           C   tau( 119) = (   0.5000557   0.5791262   2.3918876  )
       120           C_h tau( 120) = (   0.5005703   0.9642771   2.4585553  )
       121           C   tau( 121) = (   0.6669877   0.6763032   2.3895459  )
       122           C   tau( 122) = (   0.6689183   0.8667870   2.4013501  )
       123           C   tau( 123) = (   0.8335215   0.5793055   2.3841319  )
       124           C   tau( 124) = (   0.8327639   0.9636664   2.3937551  )
       125           C   tau( 125) = (   0.0001775   1.2524267   2.3940154  )
       126           C   tau( 126) = (   0.0002058   1.4454123   2.3866222  )
       127           C   tau( 127) = (   0.1666178   1.1567825   2.3964067  )
       128           C   tau( 128) = (   0.1669769   1.5416877   2.3844312  )
       129           C   tau( 129) = (   0.3342788   1.2531476   2.3945734  )
       130           C   tau( 130) = (   0.3337672   1.4457448   2.3873535  )
       131           C   tau( 131) = (   0.5000705   1.1600103   2.4042867  )
       132           C   tau( 132) = (   0.5001390   1.5419263   2.3875286  )
       133           C   tau( 133) = (   0.6659113   1.2532485   2.3961466  )
       134           C   tau( 134) = (   0.6665638   1.4459311   2.3883803  )
       135           C   tau( 135) = (   0.8334444   1.1567853   2.3980193  )
       136           C   tau( 136) = (   0.8334256   1.5416843   2.3850458  )
       137           C   tau( 137) = (   0.0000818   1.8305645   2.3801465  )
       138           C   tau( 138) = (   0.0000178   2.0230047   2.3827294  )
       139           C   tau( 139) = (   0.1669767   1.7342100   2.3821412  )
       140           C   tau( 140) = (   0.1666234   2.1191650   2.3827717  )
       141           C   tau( 141) = (   0.3334727   1.8304533   2.3834572  )
       142           C   tau( 142) = (   0.3334464   2.0228704   2.3818320  )
       143           C   tau( 143) = (   0.5000638   1.7343864   2.3850919  )
       144           C   tau( 144) = (   0.5000445   2.1189962   2.3815734  )
       145           C   tau( 145) = (   0.6666800   1.8303624   2.3835727  )
       146           C   tau( 146) = (   0.6666154   2.0227865   2.3818160  )
       147           C   tau( 147) = (   0.8332512   1.7341954   2.3822333  )
       148           C   tau( 148) = (   0.8333765   2.1191374   2.3825846  )

     number of k points=     6  gaussian smearing, width (Ry)=  0.1000
                       cart. coord. in units 2pi/alat
        k(    1) = (   0.0000000   0.0000000   0.0000000), wk =   0.2500000
        k(    2) = (   0.0000000  -0.2165064   0.0000000), wk =   0.2500000
        k(    3) = (   0.2500000   0.0000000   0.0000000), wk =   0.5000000
        k(    4) = (   0.2500000  -0.2165064   0.0000000), wk =   0.5000000
        k(    5) = (  -0.5000000   0.0000000   0.0000000), wk =   0.2500000
        k(    6) = (  -0.5000000  -0.2165064   0.0000000), wk =   0.2500000

     Largest allocated arrays     est. size (Mb)     dimensions
     Largest temporary arrays     est. size (Mb)     dimensions

     Initial potential from superposition of free atoms
     Check: negative starting charge=   -0.001848

     starting charge 1266.81751, renormalised to 1292.00000

     negative rho (up, down):  1.885E-03 0.000E+00
     Starting wfc are 1284 randomized atomic wfcs

     Self-consistent Calculation

     iteration #  1     ecut=    80.00 Ry     beta=0.70
     Davidson diagonalization with overlap
     c_bands:  3 eigenvalues not converged
     c_bands:  3 eigenvalues not converged
     c_bands:  4 eigenvalues not converged
     c_bands:  2 eigenvalues not converged
     ethr =  1.00E-04,  avg # of iterations = 37.5

     negative rho (up, down):  2.796E+01 0.000E+00

     total energy              =   -9393.22995585 Ry
     Harris-Foulkes estimate   =  -17320.43889911 Ry
     estimated scf accuracy    <  180758.20686669 Ry

     iteration #  2     ecut=    80.00 Ry     beta=0.70
     Davidson diagonalization with overlap
     ethr =  1.00E-02,  avg # of iterations = 12.7

[...]

     iteration # 44     ecut=    80.00 Ry     beta=0.70
     Davidson diagonalization with overlap
     c_bands:  1 eigenvalues not converged
     ethr =  4.39E-10,  avg # of iterations =  7.7

[...]

     total energy              =  -12707.07915114 Ry
     Harris-Foulkes estimate   =  -12707.07915115 Ry
     estimated scf accuracy    <       0.00000003 Ry

     iteration # 50     ecut=    80.00 Ry     beta=0.70
     Davidson diagonalization with overlap
     ethr =  2.47E-12,  avg # of iterations =  2.3

     negative rho (up, down):  2.109E-03 0.000E+00

     End of self-consistent calculation

          k = 0.0000 0.0000 0.0000 (256287 PWs)   bands (ev):

   -16.7068 -16.2063 -16.0797 -15.1989 -15.0102 -14.6999 -14.5642 -14.2542
   -14.1867 -14.1260 -14.1163 -13.3905 -13.2263 -13.1191 -13.1168 -13.0759
   -13.0646 -11.5958 -11.4292 -11.4187 -11.3779 -11.2029 -10.2549  -9.7188
    -9.5445  -9.5333  -9.5221  -8.7769  -8.7315  -8.6228  -8.6002  -7.7716
    -7.7249  -7.6863  -7.6393  -7.5805  -7.5643  -7.5318  -7.5174  -6.1668
    -6.1577  -6.0847  -6.0430  -6.0156  -5.9336  -5.8786  -5.8579  -5.8345
    -5.5105  -5.5078  -5.1487  -4.7834  -4.7797  -4.7047  -4.6573  -4.6172
    -4.5240  -4.4212  -4.2008  -4.1629  -4.0133  -4.0125  -3.8527  -3.7824
    -3.6025  -3.5523  -3.5122  -3.4360  -3.4305  -3.4247  -3.3992  -3.3329
    -3.2668  -3.2090  -3.1411  -3.0345  -3.0322  -3.0321  -3.0299  -3.0139
    -2.9366  -2.8916  -2.8107  -2.8094  -2.7855  -2.7642  -2.7508  -2.7156
    -2.7128  -2.7014  -2.4970  -2.4171  -2.4007  -2.3977  -2.3683  -2.3587
    -2.2173  -2.2170  -2.1965  -2.1825  -2.1781  -2.1777  -2.1756  -2.1756
    -2.0970  -2.0911  -2.0555  -2.0481  -2.0479  -2.0442  -2.0440  -2.0109
    -1.9851  -1.8672  -1.8023  -1.7674  -1.7644  -1.7635  -1.7630  -1.7273
    -1.7168  -1.6986  -1.6844  -1.6792  -1.6321  -1.6264  -1.6045  -1.5981
    -1.5895  -1.5882  -1.5766  -1.5643  -1.5602  -1.5574  -1.5421  -1.5411
    -1.5391  -1.4733  -1.4652  -1.4422  -1.4358  -1.4078  -1.4032  -1.3999
    -1.3784  -1.3707  -1.3248  -1.2898  -1.2889  -1.2761  -1.2663  -1.2375
    -1.2366  -1.2179  -1.2146  -1.1931  -1.1890  -1.1617  -1.1476  -1.1464
    -1.1291  -1.1265  -1.0751  -1.0716  -1.0622  -1.0555  -1.0548  -1.0486
    -1.0483  -1.0464  -1.0464  -1.0432  -1.0419  -1.0246  -1.0138  -0.9974
    -0.9780  -0.9635  -0.9579  -0.9527  -0.9520  -0.9452  -0.9438  -0.9426
    -0.9080  -0.8856  -0.8844  -0.8826  -0.8822  -0.8820  -0.8815  -0.8803
    -0.8757  -0.8748  -0.8736  -0.8735  -0.8715  -0.8712  -0.8677  -0.8673
    -0.8556  -0.8537  -0.8324  -0.8285  -0.8096  -0.7875  -0.7161  -0.7157
    -0.7093  -0.7085  -0.6868  -0.6860  -0.6858  -0.6671  -0.6668  -0.6468
    -0.6455  -0.6338  -0.6310  -0.6267  -0.6258  -0.6150  -0.5911  -0.5905
    -0.5866  -0.5856  -0.5804  -0.5791  -0.5694  -0.5684  -0.5189  -0.5178
    -0.4651  -0.4647  -0.4544  -0.4534  -0.4521  -0.4484  -0.4373  -0.4368
    -0.4321  -0.4314  -0.4300  -0.4293  -0.4258  -0.4256  -0.4112  -0.4109
    -0.4093  -0.4059  -0.4042  -0.3967  -0.3767  -0.3758  -0.3270  -0.3256
    -0.3210  -0.3179  -0.3177  -0.2947  -0.2945  -0.2878  -0.2877  -0.2760
    -0.2747  -0.2738  -0.2681  -0.2678  -0.2509  -0.2499  -0.2489  -0.2448
    -0.2426  -0.2417  -0.2385  -0.2374  -0.2367  -0.2353  -0.2222  -0.2175
    -0.2161  -0.2135  -0.2131  -0.1940  -0.1492  -0.1470  -0.1452  -0.1441
    -0.1440  -0.1033  -0.1002  -0.0951  -0.0938  -0.0909  -0.0889  -0.0884
    -0.0870  -0.0859  -0.0858  -0.0737  -0.0669  -0.0507  -0.0384  -0.0365
    -0.0347  -0.0333  -0.0265  -0.0104  -0.0096  -0.0045  -0.0022  -0.0003
     0.0073   0.0188   0.0196   0.0199   0.0207   0.0245   0.0246   0.0352
     0.0366   0.0373   0.0378   0.0426   0.0466   0.0552   0.0566   0.0718
     0.0774   0.0899   0.1093   0.1102   0.1334   0.1405   0.1414   0.1604
     0.1692   0.2018   0.2026   0.2097   0.2158   0.2167   0.2213   0.2265
     0.2452   0.2457   0.2469   0.2472   0.2478   0.2551   0.2580   0.2729
     0.3039   0.3133   0.3141   0.3218   0.3241   0.3245   0.3255   0.3514
     0.3546   0.3559   0.3569   0.3580   0.3863   0.3912   0.3952   0.3963
     0.3965   0.4084   0.4104   0.4127   0.4160   0.4465   0.4538   0.4610
     0.4636   0.4686   0.4770   0.4772   0.4825   0.4876   0.4980   0.4992
     0.5014   0.5074   0.5078   0.5091   0.5114   0.5116   0.5185   0.5207
     0.5238   0.5288   0.5292   0.5321   0.5379   0.5380   0.5562   0.5724
     0.5784   0.5786   0.5831   0.5941   0.6208   0.6221   0.6231   0.6231
     0.6265   0.6267   0.6281   0.6294   0.6363   0.6388   0.6456   0.6519
     0.6521   0.6540   0.6556   0.6598   0.6603   0.6698   0.6724   0.6883
     0.6934   0.6948   0.6961   0.7001   0.7051   0.7077   0.7154   0.7201
     0.7214   0.7214   0.7265   0.7280   0.7288   0.7330   0.7412   0.7465
     0.7592   0.7641   0.7784   0.7791   0.7908   0.7932   0.7944   0.7951
     0.7995   0.8017   0.8286   0.8292   0.8428   0.8445   0.8489   0.8493
     0.8632   0.8640   0.8724   0.8732   0.8734   0.8738   0.8849   0.8941
     0.9098   0.9117   0.9127   0.9151   0.9153   0.9161   0.9348   0.9391
     0.9516   0.9581   0.9591   0.9673   0.9722   0.9781   0.9839   0.9852
[...]
     3.8286   3.8290   3.8312   3.8692   3.9303   3.9428   3.9730   3.9808
     3.9811   3.9824   3.9841   3.9891   3.9919   4.1307   4.2251   4.2305
     4.2319   4.2918   4.4115   4.6510   4.7391   4.8622   4.8913   4.9025
     5.2725   5.3528   5.3938   5.4018   5.6546   5.6828   5.7109   5.7151
     5.9058   5.9076   5.9256   6.3167   6.3376   6.3753   6.3851   6.4556
     6.4587   6.4626   6.4759   6.5602   6.5798   6.5822   6.6799   6.7549
     6.7574   6.7721   6.7737   6.8035   6.9892   7.0286   7.0315   7.0686
     7.0703   7.0735   7.3323   7.3342   7.5339   7.5359   7.5741   7.6597
     7.6739   7.6802   7.6838   7.8519   8.0644   8.0990   8.1125   8.1864
     8.2032   8.2720   8.2925   8.2928   8.3108   8.3131   8.3168   8.3772
     8.3934   8.4032   8.4462   8.5281   8.5568   8.5600   8.6360   8.6385
     8.6445   8.6545   8.8046   8.8096   8.8099   8.8122   8.8207   8.8211
     9.0446   9.0878   9.0983   9.0987   9.1025   9.1129   9.1855   9.2718
     9.3162   9.3213   9.3406   9.3508   9.5238   9.5523   9.5545   9.5726
     9.6830   9.7113   9.8027   9.8340  10.0168  10.0175  10.1270

[...]

          k = 0.2500-0.2165 0.0000 (256316 PWs)   bands (ev):

[...]

          k =-0.5000 0.0000 0.0000 (256496 PWs)   bands (ev):

[...]

          k =-0.5000-0.2165 0.0000 (256328 PWs)   bands (ev):

   -16.4255 -15.9247 -15.8341 -15.8207 -15.3214 -15.1755 -15.1462 -15.1118
   -13.9286 -13.7522 -13.6953 -13.6722 -12.4861 -12.2036 -12.0171 -12.0152
   -11.8520 -11.6723 -11.6456 -11.5948 -11.5308 -11.5063 -11.4205 -11.4156
    -9.9461  -9.8263  -9.7360  -9.7350  -9.0080  -8.8519  -8.7840  -8.7589
    -8.1857  -8.1232  -8.0043  -7.9995  -6.1857  -6.1173  -5.9830  -5.9459
    -5.6098  -5.5099  -5.3638  -5.3347  -5.3040  -5.2079  -5.2073  -5.2065
    -5.2039  -5.1710  -5.0398  -5.0297  -4.4858  -4.4728  -4.3668  -4.3622
    -4.3505  -4.2851  -4.2561  -4.2253  -4.2236  -4.2227  -4.2220  -4.2086
    -4.0341  -3.9854  -3.9374  -3.8834  -3.8773  -3.8120  -3.7644  -3.7367
    -3.6895  -3.6832  -3.6189  -3.6118  -3.5224  -3.4880  -3.4756  -3.4701
    -3.1493  -3.0881  -3.0863  -3.0733  -2.6059  -2.6051  -2.6041  -2.6040
    -2.5880  -2.5749  -2.5513  -2.5437  -2.5399  -2.5256  -2.3989  -2.3451
    -2.1589  -2.1512  -2.1237  -2.1226  -2.1216  -2.1064  -2.0687  -2.0600
    -2.0426  -2.0398  -2.0361  -2.0153  -1.8608  -1.8302  -1.8291  -1.8270
    -1.8244  -1.7534  -1.7496  -1.7466  -1.5826  -1.5345  -1.5256  -1.5228
    -1.5195  -1.5189  -1.5187  -1.5184  -1.4846  -1.4818  -1.4785  -1.4785
    -1.4609  -1.4607  -1.4569  -1.4567  -1.4129  -1.4117  -1.4113  -1.4112
    -1.4090  -1.4084  -1.4027  -1.3993  -1.3843  -1.3842  -1.3838  -1.3835
    -1.3366  -1.3349  -1.3323  -1.3320  -1.2822  -1.2647  -1.2585  -1.2570
    -1.2562  -1.2184  -1.2182  -1.2154  -1.2151  -1.1981  -1.1978  -1.1963
    -1.1961  -1.1530  -1.1478  -1.1477  -1.1471  -1.1428  -1.1421  -1.1420
    -1.1419  -1.1326  -1.1166  -1.1131  -1.1116  -1.0885  -1.0881  -1.0774
    -1.0756  -1.0749  -1.0712  -1.0711  -1.0651  -1.0636  -1.0619  -1.0615
    -1.0609  -1.0594  -1.0475  -1.0315  -0.9113  -0.9105  -0.9073  -0.9055
    -0.8788  -0.8786  -0.8784  -0.8780  -0.8150  -0.7997  -0.7986  -0.7958
    -0.7951  -0.7916  -0.7911  -0.7887  -0.7883  -0.7879  -0.7869  -0.7847
    -0.7266  -0.7261  -0.7259  -0.7253  -0.7162  -0.7155  -0.7152  -0.7144
    -0.6997  -0.6996  -0.6878  -0.6844  -0.6141  -0.6042  -0.6040  -0.6006
    -0.5941  -0.5926  -0.5926  -0.5910  -0.5267  -0.5260  -0.5243  -0.5223
    -0.4871  -0.4759  -0.4755  -0.4751  -0.4654  -0.4562  -0.4560  -0.4530
    -0.4527  -0.4288  -0.4285  -0.4270  -0.4168  -0.4158  -0.4155  -0.4140
    -0.3937  -0.3772  -0.3745  -0.3730  -0.3629  -0.3035  -0.3033  -0.2972
    -0.2967  -0.2838  -0.2835  -0.2828  -0.2821  -0.2675  -0.2671  -0.2670
    -0.2657  -0.1865  -0.1850  -0.1845  -0.1826  -0.1811  -0.1798  -0.1788
    -0.1778  -0.1773  -0.1766  -0.1759  -0.1726  -0.1400  -0.1399  -0.1397
    -0.1388  -0.1275  -0.1272  -0.1269  -0.1264  -0.1228  -0.1217  -0.1217
    -0.1204  -0.0546  -0.0537  -0.0529  -0.0511  -0.0362  -0.0311  -0.0221
    -0.0202  -0.0017   0.0185   0.0210   0.0244   0.0296   0.0322   0.0334
     0.0511   0.0521   0.0523   0.0526   0.0560   0.0583   0.0614   0.0617
     0.0636   0.0640   0.0659   0.0678   0.0726   0.0729   0.0734   0.0737
     0.0787   0.0790   0.0813   0.0819   0.0937   0.0957   0.0957   0.0963
     0.1103   0.1229   0.1232   0.1239   0.1239   0.1338   0.1348   0.1352
     0.1387   0.1833   0.1834   0.1843   0.1846   0.2134   0.2168   0.2176
     0.2190   0.2561   0.2850   0.2853   0.2967   0.2982   0.2996   0.3011
     0.3041   0.3051   0.3113   0.3141   0.3167   0.3174   0.3205   0.3217
     0.3290   0.3296   0.3355   0.3361   0.3373   0.3385   0.3417   0.3457
     0.3474   0.3498   0.3521   0.3530   0.3580   0.3587   0.3659   0.3662
     0.4217   0.4225   0.4244   0.4266   0.4303   0.4305   0.4309   0.4351
     0.4417   0.4420   0.4429   0.4438   0.4709   0.4730   0.4811   0.4821
     0.4829   0.4837   0.4936   0.4940   0.5223   0.5234   0.5279   0.5296
     0.5332   0.5358   0.5392   0.5396   0.5410   0.5417   0.5430   0.5442
     0.5477   0.5479   0.5497   0.5522   0.5630   0.5640   0.5662   0.5666
     0.5712   0.5769   0.5826   0.5842   0.6399   0.6480   0.6489   0.6531
     0.6538   0.6560   0.6564   0.6581   0.6585   0.6598   0.6650   0.6660
     0.6723   0.6776   0.6817   0.6837   0.7004   0.7016   0.7023   0.7032
     0.7034   0.7041   0.7048   0.7090   0.7455   0.7531   0.7563   0.7573
     0.7819   0.7830   0.7842   0.7860   0.7894   0.7958   0.8057   0.8058
     0.8190   0.8190   0.8221   0.8245   0.8448   0.8450   0.8468   0.8472
     0.8972   0.8982   0.8988   0.8993   0.9293   0.9297   0.9330   0.9334
     0.9678   0.9817   0.9823   0.9845   0.9909   0.9993   1.0002   1.0011
[...]
     3.9061   4.1971   4.1988   4.1996   4.2034   4.2908   4.3049   4.3332
     4.3338   4.5186   4.5206   4.5355   4.5363   4.5543   4.5602   4.5633
     4.6133   4.7887   4.8538   4.8615   4.8979   5.0080   5.0167   5.0335
     5.1351   5.1387   5.1526   5.1567   5.2201   5.2533   5.2700   5.2766
     5.3214   5.3218   5.3341   5.3351   5.4381   5.6121   5.7030   5.7119
     5.7206   5.7210   5.7252   5.7289   5.7887   5.8516   5.8935   5.8983
     6.7220   6.7247   6.7913   6.7916   6.9320   7.0719   7.0859   7.1156
     7.1190   7.1236   7.1270   7.1309   7.1819   7.2571   7.2618   7.2679
     7.3289   7.3396   7.3421   7.3424   7.4092   7.5942   7.5951   7.6074
     7.6655   7.8649   7.8756   7.9533   7.9589   7.9639   7.9682   8.0165
     8.2070   8.2090   8.2203   8.2290   8.3396   8.3662   8.3678   8.3926
     8.8541   8.8557   8.8591   8.8659   8.8859   8.8995   8.9021   8.9037
     8.9404   8.9406   8.9428   8.9440   9.1027   9.1034   9.1131   9.1133
     9.2843   9.3543   9.3588   9.3627   9.4178   9.4871   9.5104   9.5351
     9.5385   9.5551   9.5565   9.5641   9.7933   9.8679   9.9698

     the Fermi energy is     3.2932 ev

!    total energy              =  -12707.07915118 Ry
     Harris-Foulkes estimate   =  -12707.07915114 Ry
     estimated scf accuracy    <          9.5E-09 Ry

     The total energy is the sum of the following terms:

     one-electron contribution = -109243.31244570 Ry
     hartree contribution      =   55982.27399489 Ry
     xc contribution           =   -4447.63148962 Ry
     ewald contribution        =   45007.93601313 Ry
     Dispersion Correction     =      -2.98822579 Ry
     smearing contrib. (-TS)   =      -3.35699810 Ry

     convergence has been achieved in  50 iterations

     Writing output data file gc.save

     General routines

     Parallel routines

   This run was terminated on:  16:11:30  28Feb2018

   JOB DONE.