     Program PWSCF v.5.4.0 starts on 13Dec2016 at  6:16:38

     Current dimensions of program PWSCF are:
     Max number of different atomic species (ntypx) = 10
     Max number of k-points (npk) =  40000
     Max angular momentum in pseudopotentials (lmaxx) =  3

     Parameters for Dispersion Correction:
       atom      VdW radius       C_6

        Cu         2.952        374.666
        C_h        2.744         60.710
        C          2.744         60.710

     bravais-lattice index     =            0
     lattice parameter (alat)  =      13.9425  a.u.
     unit-cell volume          =   21209.0878 (a.u.)^3
     number of atoms/cell      =          148
     number of atomic types    =            3
     number of electrons       =      1292.00
     number of Kohn-Sham states=          775
     kinetic-energy cutoff     =      80.0000  Ry
     charge density cutoff     =     320.0000  Ry
     convergence threshold     =      1.0E-08
     mixing beta               =       0.7000
     number of iterations used =            8  local-TF  mixing
     Exchange-correlation      =  SLA  PW   PBX  PBC ( 1  4  3  4 0 0)

     celldm(1)=  13.942539  celldm(2)=   0.000000  celldm(3)=   0.000000
     celldm(4)=   0.000000  celldm(5)=   0.000000  celldm(6)=   0.000000

     crystal axes: (cart. coord. in units of alat)
               a(1) = (   1.000000   0.000000   0.000000 )
               a(2) = (   0.000000   2.309401   0.000000 )
               a(3) = (   0.000000   0.000000   3.388418 )

     reciprocal axes: (cart. coord. in units 2 pi/alat)
               b(1) = (  1.000000  0.000000  0.000000 )
               b(2) = (  0.000000  0.433013  0.000000 )
               b(3) = (  0.000000  0.000000  0.295123 )

     PseudoPot. # 1 for Cu read from file:
     /home/549/hxw549/Short/pseudopotentials/Cu.pbe-n-van_ak.UPF
     MD5 check sum: 601f7c30f7467666bec936e0661ce3e1
     Pseudo is Ultrasoft + core correction, Zval = 11.0
     Generated by new atomic code, or converted to UPF format
     Using radial grid of  867 points,  6 beta functions with:
                l(1) =   0
                l(2) =   0
                l(3) =   1
                l(4) =   1
                l(5) =   2
                l(6) =   2
     Q(r) pseudized with  8 coefficients,  rinner =    1.400   1.400   1.400
                                                       1.400   1.400

     PseudoPot. # 2 for C  read from file:
     /home/549/hxw549/Short/pseudopotentials/C.star1s-pbe-mt_gipaw.UPF
     MD5 check sum: ef0cb3dee31bd9e4ba2a832a2c716264
     Pseudo is Norm-conserving, Zval =  5.0
     Generated by new atomic code, or converted to UPF format
     Using radial grid of 1073 points,  1 beta functions with:
                l(1) =   0

     PseudoPot. # 3 for C  read from file:
     /home/549/hxw549/Short/pseudopotentials/C.pbe-mt_gipaw.UPF
     MD5 check sum: 5ac2f21f2c440b14befe521540822c15
     Pseudo is Norm-conserving, Zval =  4.0
     Generated by new atomic code, or converted to UPF format
     Using radial grid of 1073 points,  1 beta functions with:
                l(1) =   0

     atomic species   valence    mass     pseudopotential
        Cu            11.00    63.54600     Cu( 1.00)
        C_h            5.00    12.01070     C ( 1.00)
        C              4.00    12.01070     C ( 1.00)

      2 Sym. Ops. (no inversion) found

   Cartesian axes

     site n.     atom                  positions (alat units)
         1           Cu  tau(   1) = (   0.0000000   0.0000567   0.9971194  )
         2           Cu  tau(   2) = (   0.2499927   0.2309760   0.9972946  )
         3           Cu  tau(   3) = (   0.5000000   0.0000313   0.9971490  )
         4           Cu  tau(   4) = (   0.7500073   0.2309760   0.9972946  )
         5           Cu  tau(   5) = (   0.0000000   0.4618437   0.9973425  )
         6           Cu  tau(   6) = (   0.2499840   0.6927701   0.9971914  )
         7           Cu  tau(   7) = (   0.5000000   0.4618722   0.9973119  )
         8           Cu  tau(   8) = (   0.7500160   0.6927701   0.9971914  )
         9           Cu  tau(   9) = (   0.0000000   0.9237521   0.9970621  )
        10           Cu  tau(  10) = (   0.2500157   1.1547420   0.9971373  )
        11           Cu  tau(  11) = (   0.5000000   0.9237453   0.9970727  )
        12           Cu  tau(  12) = (   0.7499843   1.1547420   0.9971373  )
        13           Cu  tau(  13) = (   0.0000000   1.3856555   0.9972830  )
        14           Cu  tau(  14) = (   0.2500029   1.6165618   0.9973242  )
        15           Cu  tau(  15) = (   0.5000000   1.3857014   0.9973005  )
        16           Cu  tau(  16) = (   0.7499971   1.6165618   0.9973242  )
        17           Cu  tau(  17) = (   0.0000000   1.8474941   0.9971969  )
        18           Cu  tau(  18) = (   0.2500043   2.0784518   0.9970745  )
        19           Cu  tau(  19) = (   0.5000000   1.8474499   0.9971773  )
        20           Cu  tau(  20) = (   0.7499957   2.0784518   0.9970745  )
        21           Cu  tau(  21) = (   0.0000000   0.2308065   1.2457643  )
        22           Cu  tau(  22) = (   0.2499892  -0.0001010   1.2455764  )
        23           Cu  tau(  23) = (   0.5000000   0.2308938   1.2456746  )
        24           Cu  tau(  24) = (   0.7500108  -0.0001010   1.2455764  )
        25           Cu  tau(  25) = (   0.0000000   0.6929786   1.2456406  )
        26           Cu  tau(  26) = (   0.2499874   0.4619293   1.2457459  )
        27           Cu  tau(  27) = (   0.5000000   0.6929012   1.2456074  )
        28           Cu  tau(  28) = (   0.7500126   0.4619293   1.2457459  )
        29           Cu  tau(  29) = (   0.0000000   1.1546142   1.2455676  )
        30           Cu  tau(  30) = (   0.2499981   0.9237849   1.2455149  )
        31           Cu  tau(  31) = (   0.5000000   1.1545763   1.2455800  )
        32           Cu  tau(  32) = (   0.7500019   0.9237849   1.2455149  )
        33           Cu  tau(  33) = (   0.0000000   1.6166029   1.2456910  )
        34           Cu  tau(  34) = (   0.2500161   1.3855492   1.2457134  )
        35           Cu  tau(  35) = (   0.5000000   1.6166555   1.2458019  )
        36           Cu  tau(  36) = (   0.7499839   1.3855492   1.2457134  )
        37           Cu  tau(  37) = (   0.0000000   2.0784993   1.2455162  )
        38           Cu  tau(  38) = (   0.2500161   1.8476387   1.2456210  )
        39           Cu  tau(  39) = (   0.5000000   2.0784755   1.2455152  )
        40           Cu  tau(  40) = (   0.7499839   1.8476387   1.2456210  )
        41           Cu  tau(  41) = (   0.0000000  -0.0003182   1.4954305  )
        42           Cu  tau(  42) = (   0.2500224   0.2307186   1.4951678  )
        43           Cu  tau(  43) = (   0.5000000  -0.0002059   1.4952775  )
        44           Cu  tau(  44) = (   0.7499776   0.2307186   1.4951678  )
        45           Cu  tau(  45) = (   0.0000000   0.4620254   1.4950571  )
        46           Cu  tau(  46) = (   0.2500339   0.6931225   1.4952807  )
        47           Cu  tau(  47) = (   0.5000000   0.4619896   1.4952144  )
        48           Cu  tau(  48) = (   0.7499661   0.6931225   1.4952807  )
        49           Cu  tau(  49) = (   0.0000000   0.9238798   1.4954544  )
        50           Cu  tau(  50) = (   0.2499708   1.1544329   1.4953374  )
        51           Cu  tau(  51) = (   0.5000000   0.9237633   1.4954072  )
        52           Cu  tau(  52) = (   0.7500292   1.1544329   1.4953374  )
        53           Cu  tau(  53) = (   0.0000000   1.3854453   1.4952066  )
        54           Cu  tau(  54) = (   0.2499861   1.6167017   1.4951298  )
        55           Cu  tau(  55) = (   0.5000000   1.3853760   1.4951346  )
        56           Cu  tau(  56) = (   0.7500139   1.6167017   1.4951298  )
        57           Cu  tau(  57) = (   0.0000000   1.8477718   1.4952308  )
        58           Cu  tau(  58) = (   0.2499930   2.0785254   1.4954090  )
        59           Cu  tau(  59) = (   0.5000000   1.8478762   1.4953503  )
        60           Cu  tau(  60) = (   0.7500070   2.0785254   1.4954090  )
[...]
       105           C   tau( 105) = (   0.3331238   0.0962174   2.3860158  )
       106           C   tau( 106) = (   0.3331280   0.2886629   2.3856823  )
       107           C   tau( 107) = (   0.5000000  -0.0000818   2.3845687  )
       108           C   tau( 108) = (   0.5000000   0.3849277   2.3842391  )
       109           C   tau( 109) = (   0.6668762   0.0962174   2.3860158  )
       110           C   tau( 110) = (   0.6668720   0.2886629   2.3856823  )
       111           C   tau( 111) = (   0.8333677   0.0000435   2.3878440  )
       112           C   tau( 112) = (   0.8335100   0.3848966   2.3886743  )
       113           C   tau( 113) = (   0.0000000   0.6735163   2.3892509  )
       114           C   tau( 114) = (   0.0000000   0.8659398   2.3870960  )
       115           C   tau( 115) = (   0.1664759   0.5773226   2.3882842  )
       116           C   tau( 116) = (   0.1667428   0.9622141   2.3870264  )
       117           C   tau( 117) = (   0.3332094   0.6735984   2.3858047  )
       118           C   tau( 118) = (   0.3332031   0.8660537   2.3866148  )
       119           C   tau( 119) = (   0.5000000   0.5773685   2.3848465  )
       120           C_h tau( 120) = (   0.5000000   0.9623380   2.3860825  )
       121           C   tau( 121) = (   0.6667906   0.6735984   2.3858047  )
       122           C   tau( 122) = (   0.6667969   0.8660537   2.3866148  )
       123           C   tau( 123) = (   0.8335241   0.5773226   2.3882842  )
       124           C   tau( 124) = (   0.8332572   0.9622141   2.3870264  )
       125           C   tau( 125) = (   0.0000000   1.2508867   2.3852683  )
       126           C   tau( 126) = (   0.0000000   1.4433300   2.3840871  )
       127           C   tau( 127) = (   0.1667360   1.1546708   2.3859697  )
       128           C   tau( 128) = (   0.1668939   1.5396104   2.3857176  )
       129           C   tau( 129) = (   0.3335095   1.2509657   2.3878953  )
       130           C   tau( 130) = (   0.3334866   1.4433958   2.3886602  )
       131           C   tau( 131) = (   0.5000000   1.1547731   2.3885512  )
       132           C   tau( 132) = (   0.5000000   1.5396099   2.3901428  )
       133           C   tau( 133) = (   0.6664905   1.2509657   2.3878953  )
       134           C   tau( 134) = (   0.6665134   1.4433958   2.3886602  )
       135           C   tau( 135) = (   0.8332640   1.1546708   2.3859697  )
       136           C   tau( 136) = (   0.8331061   1.5396104   2.3857176  )
       137           C   tau( 137) = (   0.0000000   1.8283510   2.3842019  )
       138           C   tau( 138) = (   0.0000000   2.0207949   2.3863399  )
       139           C   tau( 139) = (   0.1668959   1.7320513   2.3858703  )
       140           C   tau( 140) = (   0.1666186   2.1169980   2.3865340  )
       141           C   tau( 141) = (   0.3334155   1.8282368   2.3882160  )
       142           C   tau( 142) = (   0.3334352   2.0206763   2.3869561  )
       143           C   tau( 143) = (   0.5000000   1.7319961   2.3895398  )
       144           C   tau( 144) = (   0.5000000   2.1168754   2.3870198  )
       145           C   tau( 145) = (   0.6665845   1.8282368   2.3882160  )
       146           C   tau( 146) = (   0.6665648   2.0206763   2.3869561  )
       147           C   tau( 147) = (   0.8331041   1.7320513   2.3858703  )
       148           C   tau( 148) = (   0.8333814   2.1169980   2.3865340  )

     number of k points=     6  gaussian smearing, width (Ry)=  0.1000
                       cart. coord. in units 2pi/alat
        k(    1) = (   0.0000000   0.0000000   0.0000000), wk =   0.2500000
        k(    2) = (   0.0000000  -0.2165064   0.0000000), wk =   0.2500000
        k(    3) = (   0.2500000   0.0000000   0.0000000), wk =   0.5000000
        k(    4) = (   0.2500000  -0.2165064   0.0000000), wk =   0.5000000
        k(    5) = (  -0.5000000   0.0000000   0.0000000), wk =   0.2500000
        k(    6) = (  -0.5000000  -0.2165064   0.0000000), wk =   0.2500000

     Largest allocated arrays     est. size (Mb)     dimensions
     Largest temporary arrays     est. size (Mb)     dimensions

     Initial potential from superposition of free atoms
     Check: negative starting charge=   -0.001842

     starting charge 1266.81751, renormalised to 1292.00000

     negative rho (up, down):  1.879E-03 0.000E+00
     Starting wfc are 1284 randomized atomic wfcs

     Self-consistent Calculation

     iteration #  1     ecut=    80.00 Ry     beta=0.70
     Davidson diagonalization with overlap
     c_bands:  3 eigenvalues not converged
     c_bands:  1 eigenvalues not converged
     ethr =  1.00E-04,  avg # of iterations = 36.5

     negative rho (up, down):  2.723E+01 0.000E+00

     total energy              =   -9476.27187274 Ry
     Harris-Foulkes estimate   =  -17310.57635095 Ry
     estimated scf accuracy    <  180103.79797258 Ry

     iteration #  2     ecut=    80.00 Ry     beta=0.70
     Davidson diagonalization with overlap
     ethr =  1.00E-02,  avg # of iterations = 12.2

[...]

     iteration # 38     ecut=    80.00 Ry     beta=0.70
     Davidson diagonalization with overlap
     c_bands:  1 eigenvalues not converged
     ethr =  4.41E-09,  avg # of iterations =  7.3

[...]

     total energy              =  -12707.14308828 Ry
     Harris-Foulkes estimate   =  -12707.14308825 Ry
     estimated scf accuracy    <       0.00000002 Ry

     iteration # 47     ecut=    80.00 Ry     beta=0.70
     Davidson diagonalization with overlap
     ethr =  1.74E-12,  avg # of iterations =  2.0

     negative rho (up, down):  2.115E-03 0.000E+00

     End of self-consistent calculation

          k = 0.0000 0.0000 0.0000 (256287 PWs)   bands (ev):

   -17.2882 -16.2342 -16.0876 -15.4319 -15.0438 -14.7912 -14.6915 -14.2524
   -14.1990 -14.1387 -14.1245 -13.4681 -13.3234 -13.1544 -13.1223 -13.0877
   -13.0791 -11.6692 -11.5334 -11.4879 -11.3886 -11.2058 -10.3535  -9.7703
    -9.7609  -9.6272  -9.5233  -8.9876  -8.8000  -8.6764  -8.5999  -8.0486
    -7.9026  -7.7623  -7.6419  -7.5791  -7.5754  -7.5356  -7.5219  -6.3591
    -6.3509  -6.1272  -6.0214  -6.0183  -5.9506  -5.8892  -5.8595  -5.8439
    -5.4987  -5.4850  -5.3073  -4.8936  -4.8392  -4.8004  -4.6366  -4.6215
    -4.5832  -4.4250  -4.2581  -4.1472  -3.9895  -3.9878  -3.9702  -3.9473
    -3.6178  -3.5512  -3.5315  -3.5262  -3.4209  -3.4178  -3.4076  -3.4000
    -3.2768  -3.1867  -3.1219  -3.0620  -3.0156  -3.0078  -3.0071  -3.0067
    -2.9915  -2.8586  -2.8350  -2.7994  -2.7813  -2.7425  -2.7418  -2.7396
    -2.7178  -2.7139  -2.5339  -2.4329  -2.3776  -2.3764  -2.3389  -2.3361
    -2.1947  -2.1921  -2.1807  -2.1777  -2.1521  -2.1519  -2.1519  -2.1518
    -2.1126  -2.0783  -2.0775  -2.0354  -2.0213  -2.0210  -2.0210  -2.0207
    -1.9610  -1.8418  -1.7771  -1.7450  -1.7388  -1.7379  -1.7377  -1.7027
    -1.6930  -1.6717  -1.6584  -1.6568  -1.6122  -1.6019  -1.5899  -1.5711
    -1.5647  -1.5631  -1.5607  -1.5510  -1.5396  -1.5351  -1.5347  -1.5155
    -1.5141  -1.4589  -1.4415  -1.4305  -1.4156  -1.3839  -1.3795  -1.3770
    -1.3716  -1.3529  -1.2989  -1.2904  -1.2635  -1.2621  -1.2508  -1.2116
    -1.2113  -1.1918  -1.1897  -1.1744  -1.1670  -1.1641  -1.1262  -1.1206
    -1.1086  -1.1078  -1.0494  -1.0469  -1.0356  -1.0293  -1.0271  -1.0248
    -1.0246  -1.0221  -1.0207  -1.0158  -1.0155  -0.9982  -0.9952  -0.9813
    -0.9518  -0.9406  -0.9380  -0.9348  -0.9234  -0.9190  -0.9180  -0.9172
    -0.8942  -0.8612  -0.8575  -0.8574  -0.8563  -0.8556  -0.8546  -0.8538
    -0.8527  -0.8525  -0.8506  -0.8483  -0.8482  -0.8480  -0.8458  -0.8426
    -0.8413  -0.8331  -0.8297  -0.8292  -0.8219  -0.7857  -0.6898  -0.6896
    -0.6857  -0.6830  -0.6829  -0.6603  -0.6585  -0.6415  -0.6413  -0.6201
    -0.6196  -0.6059  -0.6043  -0.6029  -0.6024  -0.5878  -0.5644  -0.5638
    -0.5618  -0.5613  -0.5539  -0.5530  -0.5423  -0.5420  -0.4921  -0.4921
    -0.4382  -0.4379  -0.4277  -0.4260  -0.4258  -0.4244  -0.4106  -0.4104
    -0.4048  -0.4048  -0.4046  -0.4041  -0.3999  -0.3998  -0.3862  -0.3851
    -0.3850  -0.3773  -0.3749  -0.3749  -0.3511  -0.3505  -0.2994  -0.2984
    -0.2966  -0.2911  -0.2909  -0.2644  -0.2644  -0.2644  -0.2644  -0.2494
    -0.2475  -0.2468  -0.2425  -0.2424  -0.2246  -0.2210  -0.2196  -0.2193
    -0.2150  -0.2145  -0.2144  -0.2141  -0.2117  -0.2087  -0.1925  -0.1901
    -0.1894  -0.1881  -0.1875  -0.1684  -0.1211  -0.1203  -0.1182  -0.1180
    -0.1154  -0.0731  -0.0724  -0.0697  -0.0683  -0.0683  -0.0624  -0.0621
    -0.0618  -0.0618  -0.0616  -0.0538  -0.0473  -0.0345  -0.0115  -0.0086
    -0.0081  -0.0077   0.0010   0.0197   0.0207   0.0212   0.0217   0.0265
     0.0303   0.0454   0.0461   0.0477   0.0479   0.0485   0.0493   0.0617
     0.0637   0.0638   0.0640   0.0694   0.0757   0.0772   0.0775   0.0984
     0.1023   0.1174   0.1352   0.1358   0.1572   0.1643   0.1647   0.1892
     0.1935   0.2333   0.2377   0.2381   0.2387   0.2398   0.2432   0.2499
     0.2695   0.2733   0.2736   0.2738   0.2745   0.2839   0.2844   0.2941
     0.3264   0.3408   0.3408   0.3480   0.3498   0.3502   0.3502   0.3774
     0.3832   0.3833   0.3841   0.3843   0.4101   0.4148   0.4149   0.4223
     0.4229   0.4359   0.4369   0.4391   0.4405   0.4770   0.4792   0.4925
     0.4944   0.4968   0.4968   0.4973   0.5097   0.5211   0.5271   0.5304
     0.5331   0.5346   0.5355   0.5356   0.5374   0.5396   0.5468   0.5470
     0.5472   0.5540   0.5542   0.5559   0.5638   0.5640   0.5802   0.5957
     0.6057   0.6058   0.6161   0.6165   0.6488   0.6495   0.6498   0.6506
     0.6527   0.6528   0.6532   0.6540   0.6640   0.6652   0.6740   0.6784
     0.6791   0.6794   0.6805   0.6873   0.6876   0.6975   0.6978   0.7151
     0.7202   0.7206   0.7209   0.7301   0.7309   0.7329   0.7426   0.7451
     0.7462   0.7485   0.7485   0.7544   0.7562   0.7578   0.7585   0.7604
     0.7688   0.7738   0.8058   0.8060   0.8161   0.8175   0.8231   0.8243
     0.8246   0.8251   0.8556   0.8561   0.8697   0.8709   0.8762   0.8762
     0.8907   0.8911   0.9002   0.9003   0.9008   0.9021   0.9090   0.9219
     0.9369   0.9378   0.9393   0.9418   0.9425   0.9436   0.9607   0.9631
     0.9776   0.9854   0.9859   0.9934   0.9961   0.9971   1.0084   1.0096
[...]
     3.8500   3.8539   3.8549   3.8916   3.9672   3.9805   3.9859   4.0063
     4.0070   4.0085   4.0094   4.0114   4.0138   4.2284   4.2489   4.2497
     4.2507   4.3557   4.3975   4.7074   4.7621   4.8362   4.8829   4.9014
     5.3044   5.3929   5.3985   5.4062   5.7062   5.7090   5.7202   5.7244
     5.9297   5.9306   6.1850   6.3457   6.3502   6.4097   6.4138   6.4698
     6.4700   6.4758   6.4816   6.5806   6.6031   6.6076   6.7168   6.7729
     6.7798   6.7940   6.8123   6.8184   7.0165   7.0459   7.0499   7.0596
     7.0690   7.0922   7.3573   7.3581   7.5095   7.5493   7.5507   7.6964
     7.6965   7.7068   7.7096   8.0045   8.0395   8.0831   8.1326   8.1950
     8.2352   8.2998   8.3063   8.3073   8.3284   8.3357   8.3455   8.4113
     8.4137   8.4303   8.4841   8.5608   8.5629   8.5671   8.6620   8.6649
     8.6683   8.6689   8.8139   8.8164   8.8284   8.8336   8.8385   8.8403
     9.1077   9.1097   9.1103   9.1161   9.1198   9.1402   9.1743   9.3221
     9.3436   9.3448   9.4243   9.4798   9.4904   9.5774   9.5786   9.6613
     9.6711   9.8033   9.8308  10.0433  10.0437  10.1181  10.1777

[...]

          k = 0.2500-0.2165 0.0000 (256316 PWs)   bands (ev):

[...]

          k =-0.5000 0.0000 0.0000 (256496 PWs)   bands (ev):

[...]

          k =-0.5000-0.2165 0.0000 (256328 PWs)   bands (ev):

   -17.1765 -15.9780 -15.8200 -15.7951 -15.3896 -15.2197 -15.1502 -15.1145
   -14.0589 -13.8408 -13.7091 -13.6732 -12.6846 -12.4581 -12.0018 -11.9967
   -11.9222 -11.7746 -11.6701 -11.5899 -11.5384 -11.5382 -11.4231 -11.4053
   -10.0451 -10.0388  -9.7697  -9.7235  -9.2276  -8.9140  -8.7978  -8.7593
    -8.2697  -8.2315  -8.0221  -7.9997  -6.5372  -6.3473  -6.1227  -5.9493
    -5.8388  -5.6270  -5.3887  -5.3139  -5.3057  -5.2217  -5.2140  -5.1818
    -5.1799  -5.1797  -5.0184  -5.0045  -4.9623  -4.5121  -4.3887  -4.3509
    -4.3259  -4.3206  -4.2639  -4.2148  -4.2021  -4.1985  -4.1979  -4.1976
    -4.0818  -4.0769  -3.9157  -3.8769  -3.8653  -3.8582  -3.7551  -3.7460
    -3.7043  -3.6898  -3.6040  -3.5923  -3.5834  -3.4873  -3.4663  -3.4568
    -3.1737  -3.0871  -3.0723  -3.0620  -2.6373  -2.5821  -2.5813  -2.5794
    -2.5790  -2.5787  -2.5451  -2.5289  -2.5238  -2.5233  -2.4095  -2.3529
    -2.1671  -2.1534  -2.1092  -2.1004  -2.0967  -2.0961  -2.0531  -2.0497
    -2.0199  -2.0195  -2.0181  -2.0101  -1.9396  -1.8032  -1.8032  -1.8020
    -1.8019  -1.7712  -1.7390  -1.7284  -1.5678  -1.5243  -1.5092  -1.5021
    -1.4936  -1.4936  -1.4935  -1.4934  -1.4597  -1.4565  -1.4541  -1.4539
    -1.4338  -1.4336  -1.4334  -1.4333  -1.3843  -1.3842  -1.3841  -1.3839
    -1.3825  -1.3823  -1.3818  -1.3816  -1.3587  -1.3587  -1.3585  -1.3585
    -1.3097  -1.3085  -1.3075  -1.3074  -1.3034  -1.2386  -1.2334  -1.2333
    -1.2324  -1.1911  -1.1911  -1.1909  -1.1909  -1.1750  -1.1713  -1.1710
    -1.1709  -1.1282  -1.1220  -1.1220  -1.1218  -1.1177  -1.1158  -1.1158
    -1.1158  -1.1102  -1.0966  -1.0928  -1.0904  -1.0868  -1.0575  -1.0573
    -1.0569  -1.0569  -1.0410  -1.0404  -1.0402  -1.0402  -1.0379  -1.0374
    -1.0373  -1.0369  -1.0367  -1.0149  -0.8829  -0.8826  -0.8820  -0.8820
    -0.8534  -0.8530  -0.8527  -0.8527  -0.8019  -0.7711  -0.7703  -0.7701
    -0.7696  -0.7692  -0.7685  -0.7668  -0.7631  -0.7619  -0.7617  -0.7616
    -0.7032  -0.7005  -0.7004  -0.7000  -0.6935  -0.6892  -0.6884  -0.6880
    -0.6720  -0.6680  -0.6673  -0.6672  -0.6420  -0.5831  -0.5712  -0.5710
    -0.5684  -0.5672  -0.5669  -0.5665  -0.5153  -0.4985  -0.4983  -0.4981
    -0.4962  -0.4496  -0.4489  -0.4486  -0.4455  -0.4283  -0.4282  -0.4277
    -0.4276  -0.4105  -0.4001  -0.3999  -0.3894  -0.3894  -0.3885  -0.3884
    -0.3777  -0.3520  -0.3502  -0.3475  -0.3413  -0.2738  -0.2738  -0.2732
    -0.2732  -0.2578  -0.2577  -0.2572  -0.2571  -0.2417  -0.2402  -0.2401
    -0.2401  -0.1597  -0.1592  -0.1585  -0.1578  -0.1536  -0.1535  -0.1532
    -0.1530  -0.1520  -0.1497  -0.1496  -0.1470  -0.1128  -0.1128  -0.1126
    -0.1126  -0.1009  -0.1001  -0.0995  -0.0994  -0.0961  -0.0961  -0.0958
    -0.0957  -0.0670  -0.0272  -0.0266  -0.0258  -0.0257  -0.0003  -0.0002
     0.0017   0.0025   0.0489   0.0493   0.0547   0.0548   0.0600   0.0651
     0.0794   0.0797   0.0801   0.0803   0.0854   0.0868   0.0882   0.0885
     0.0891   0.0902   0.0935   0.0939   0.1000   0.1002   0.1008   0.1009
     0.1061   0.1062   0.1063   0.1064   0.1169   0.1226   0.1229   0.1230
     0.1329   0.1508   0.1508   0.1509   0.1510   0.1602   0.1612   0.1613
     0.1628   0.2095   0.2104   0.2111   0.2111   0.2350   0.2435   0.2436
     0.2447   0.2555   0.2979   0.2993   0.3148   0.3164   0.3267   0.3271
     0.3279   0.3284   0.3348   0.3405   0.3439   0.3450   0.3452   0.3470
     0.3548   0.3608   0.3609   0.3615   0.3615   0.3657   0.3683   0.3683
     0.3697   0.3702   0.3709   0.3714   0.3777   0.3878   0.3992   0.4008
     0.4454   0.4477   0.4491   0.4512   0.4569   0.4569   0.4578   0.4584
     0.4689   0.4691   0.4691   0.4694   0.5059   0.5069   0.5079   0.5086
     0.5098   0.5098   0.5103   0.5105   0.5460   0.5538   0.5539   0.5541
     0.5541   0.5599   0.5640   0.5671   0.5677   0.5681   0.5682   0.5702
     0.5759   0.5760   0.5763   0.5763   0.5899   0.5904   0.5915   0.5917
     0.6006   0.6056   0.6068   0.6072   0.6680   0.6761   0.6762   0.6788
     0.6791   0.6825   0.6829   0.6829   0.6830   0.6833   0.6889   0.6915
     0.6919   0.6997   0.7068   0.7099   0.7282   0.7282   0.7289   0.7290
     0.7297   0.7305   0.7317   0.7317   0.7721   0.7787   0.7827   0.7836
     0.8016   0.8067   0.8112   0.8114   0.8131   0.8156   0.8301   0.8302
     0.8474   0.8475   0.8481   0.8482   0.8687   0.8703   0.8727   0.8730
     0.9251   0.9251   0.9257   0.9257   0.9577   0.9580   0.9592   0.9593
     1.0029   1.0106   1.0121   1.0123   1.0157   1.0205   1.0259   1.0261
[...]
     4.0052   4.2238   4.2244   4.2262   4.2316   4.3105   4.3215   4.3358
     4.3371   4.5078   4.5518   4.5542   4.5567   4.5644   4.5924   4.5956
     4.6241   4.7929   4.8648   4.8840   4.9028   5.0056   5.0423   5.0663
     5.1667   5.1685   5.1720   5.1721   5.2275   5.2592   5.2758   5.2984
     5.3350   5.3371   5.3457   5.3498   5.4988   5.5964   5.7285   5.7321
     5.7450   5.7463   5.7482   5.7496   5.8374   5.8642   5.8891   5.8894
     6.7815   6.7828   6.7832   6.7837   7.0949   7.1138   7.1157   7.1220
     7.1417   7.1510   7.1521   7.1530   7.2463   7.2685   7.2706   7.2734
     7.3588   7.3653   7.3663   7.3663   7.5141   7.6058   7.6060   7.6112
     7.6692   7.9048   7.9403   7.9573   7.9618   7.9813   8.0020   8.0043
     8.2205   8.2357   8.2384   8.2425   8.2456   8.2839   8.3599   8.3652
     8.8882   8.8885   8.8903   8.8912   8.9205   8.9231   8.9233   8.9248
     8.9622   8.9632   8.9644   8.9654   9.1060   9.1105   9.1185   9.1189
     9.3024   9.3248   9.3387   9.3450   9.5154   9.5247   9.5344   9.5475
     9.5625   9.5677   9.5720   9.5729   9.9259   9.9669   9.9685

     the Fermi energy is     3.3207 ev

!    total energy              =  -12707.14308833 Ry
     Harris-Foulkes estimate   =  -12707.14308828 Ry
     estimated scf accuracy    <          4.7E-09 Ry

     The total energy is the sum of the following terms:

     one-electron contribution = -109279.37210804 Ry
     hartree contribution      =   56001.07963987 Ry
     xc contribution           =   -4447.77466926 Ry
     ewald contribution        =   45025.26632960 Ry
     Dispersion Correction     =      -2.98700982 Ry
     smearing contrib. (-TS)   =      -3.35527068 Ry

     convergence has been achieved in  47 iterations

     Writing output data file gc.save

     General routines

     Parallel routines

   This run was terminated on:  11:26:29  13Dec2016

   JOB DONE.