     Program PWSCF v.5.4.0 starts on 19Apr2017 at 17:53:37

     Current dimensions of program PWSCF are:
     Max number of different atomic species (ntypx) = 10
     Max number of k-points (npk) =  40000
     Max angular momentum in pseudopotentials (lmaxx) =  3

     Parameters for Dispersion Correction:
       atom      VdW radius       C_6

        C          2.744         60.710

     bravais-lattice index     =            0
     lattice parameter (alat)  =      13.9425  a.u.
     unit-cell volume          =    8483.6351 (a.u.)^3
     number of atoms/cell      =           48
     number of atomic types    =            1
     number of electrons       =       192.00
     number of Kohn-Sham states=          115
     kinetic-energy cutoff     =      80.0000  Ry
     charge density cutoff     =     320.0000  Ry
     convergence threshold     =      1.0E-10
     mixing beta               =       0.7000
     number of iterations used =            8  local-TF  mixing
     Exchange-correlation      =  SLA  PW   PBX  PBC ( 1  4  3  4 0 0)

     celldm(1)=  13.942539  celldm(2)=   0.000000  celldm(3)=   0.000000
     celldm(4)=   0.000000  celldm(5)=   0.000000  celldm(6)=   0.000000

     crystal axes: (cart. coord. in units of alat)
               a(1) = (   1.000000   0.000000   0.000000 )
               a(2) = (   0.000000   2.309401   0.000000 )
               a(3) = (   0.000000   0.000000   1.355367 )

     reciprocal axes: (cart. coord. in units 2 pi/alat)
               b(1) = (  1.000000  0.000000  0.000000 )
               b(2) = (  0.000000  0.433013  0.000000 )
               b(3) = (  0.000000  0.000000  0.737807 )

     PseudoPot. # 1 for C  read from file:
     /home/549/hxw549/Short/pseudopotentials/C.pbe-mt_gipaw.UPF
     MD5 check sum: 5ac2f21f2c440b14befe521540822c15
     Pseudo is Norm-conserving, Zval =  4.0
     Generated by new atomic code, or converted to UPF format
     Using radial grid of 1073 points,  1 beta functions with:
                l(1) =   0

     atomic species   valence    mass     pseudopotential
        C              4.00    12.01070     C ( 1.00)

      2 Sym. Ops. (no inversion) found

                                    s                        frac. trans.

      isym =  1     identity

 cryst.   s( 1) = (     1          0          0      )
                  (     0          1          0      )
                  (     0          0          1      )

 cart.    s( 1) = (  1.0000000  0.0000000  0.0000000 )
                  (  0.0000000  1.0000000  0.0000000 )
                  (  0.0000000  0.0000000  1.0000000 )

      isym =  2     inv. 180 deg rotation - cart. axis [1,0,0]

 cryst.   s( 2) = (    -1          0          0      )
                  (     0          1          0      )
                  (     0          0          1      )

 cart.    s( 2) = ( -1.0000000  0.0000000  0.0000000 )
                  (  0.0000000  1.0000000  0.0000000 )
                  (  0.0000000  0.0000000  1.0000000 )

   Cartesian axes

     site n.     atom                  positions (alat units)
         1           C   tau(   1) = (   0.0000000   0.0962962   0.6811249  )
         2           C   tau(   2) = (   0.0000000   0.2886925   0.6823081  )
         3           C   tau(   3) = (   0.1666323   0.0000435   0.6800813  )
         4           C   tau(   4) = (   0.1664900   0.3848966   0.6809121  )
         5           C   tau(   5) = (   0.3331238   0.0962174   0.6782529  )
         6           C   tau(   6) = (   0.3331280   0.2886629   0.6779195  )
         7           C   tau(   7) = (   0.5000000  -0.0000818   0.6768054  )
         8           C   tau(   8) = (   0.5000000   0.3849277   0.6764760  )
         9           C   tau(   9) = (   0.6668762   0.0962174   0.6782529  )
        10           C   tau(  10) = (   0.6668720   0.2886629   0.6779195  )
        11           C   tau(  11) = (   0.8333677   0.0000435   0.6800813  )
        12           C   tau(  12) = (   0.8335100   0.3848966   0.6809121  )
        13           C   tau(  13) = (   0.0000000   0.6735163   0.6814882  )
        14           C   tau(  14) = (   0.0000000   0.8659398   0.6793331  )
        15           C   tau(  15) = (   0.1664759   0.5773226   0.6805218  )
        16           C   tau(  16) = (   0.1667428   0.9622141   0.6792640  )
        17           C   tau(  17) = (   0.3332094   0.6735984   0.6780415  )
        18           C   tau(  18) = (   0.3332031   0.8660537   0.6788520  )
        19           C   tau(  19) = (   0.5000000   0.5773685   0.6770832  )
        20           C   tau(  20) = (   0.5000000   0.9623380   0.6783193  )
        21           C   tau(  21) = (   0.6667906   0.6735984   0.6780415  )
        22           C   tau(  22) = (   0.6667969   0.8660537   0.6788520  )
        23           C   tau(  23) = (   0.8335241   0.5773226   0.6805218  )
        24           C   tau(  24) = (   0.8332572   0.9622141   0.6792640  )
        25           C   tau(  25) = (   0.0000000   1.2508867   0.6775061  )
        26           C   tau(  26) = (   0.0000000   1.4433300   0.6763242  )
        27           C   tau(  27) = (   0.1667360   1.1546708   0.6782068  )
        28           C   tau(  28) = (   0.1668939   1.5396104   0.6779547  )
        29           C   tau(  29) = (   0.3335095   1.2509657   0.6801328  )
        30           C   tau(  30) = (   0.3334866   1.4433958   0.6808972  )
        31           C   tau(  31) = (   0.5000000   1.1547731   0.6807888  )
        32           C   tau(  32) = (   0.5000000   1.5396099   0.6823800  )
        33           C   tau(  33) = (   0.6664905   1.2509657   0.6801328  )
        34           C   tau(  34) = (   0.6665134   1.4433958   0.6808972  )
        35           C   tau(  35) = (   0.8332640   1.1546708   0.6782068  )
        36           C   tau(  36) = (   0.8331061   1.5396104   0.6779547  )
        37           C   tau(  37) = (   0.0000000   1.8283510   0.6764394  )
        38           C   tau(  38) = (   0.0000000   2.0207949   0.6785768  )
        39           C   tau(  39) = (   0.1668959   1.7320513   0.6781079  )
        40           C   tau(  40) = (   0.1666186   2.1169980   0.6787706  )
        41           C   tau(  41) = (   0.3334155   1.8282368   0.6804527  )
        42           C   tau(  42) = (   0.3334352   2.0206763   0.6791935  )
        43           C   tau(  43) = (   0.5000000   1.7319961   0.6817768  )
        44           C   tau(  44) = (   0.5000000   2.1168754   0.6792572  )
        45           C   tau(  45) = (   0.6665845   1.8282368   0.6804527  )
        46           C   tau(  46) = (   0.6665648   2.0206763   0.6791935  )
        47           C   tau(  47) = (   0.8331041   1.7320513   0.6781079  )
        48           C   tau(  48) = (   0.8333814   2.1169980   0.6787706  )

   Crystallographic axes

     site n.     atom                  positions (cryst. coord.)
         1           C   tau(   1) = (  0.0000000  0.0416975  0.5025390  )
         2           C   tau(   2) = (  0.0000000  0.1250075  0.5034120  )
         3           C   tau(   3) = (  0.1666323  0.0000188  0.5017690  )
         4           C   tau(   4) = (  0.1664900  0.1666651  0.5023820  )
         5           C   tau(   5) = (  0.3331238  0.0416634  0.5004200  )
         6           C   tau(   6) = (  0.3331280  0.1249947  0.5001740  )
         7           C   tau(   7) = (  0.5000000 -0.0000354  0.4993520  )
         8           C   tau(   8) = (  0.5000000  0.1666786  0.4991090  )
         9           C   tau(   9) = (  0.6668762  0.0416634  0.5004200  )
        10           C   tau(  10) = (  0.6668720  0.1249947  0.5001740  )
        11           C   tau(  11) = (  0.8333677  0.0000188  0.5017690  )
        12           C   tau(  12) = (  0.8335100  0.1666651  0.5023820  )
        13           C   tau(  13) = (  0.0000000  0.2916411  0.5028070  )
        14           C   tau(  14) = (  0.0000000  0.3749629  0.5012170  )
        15           C   tau(  15) = (  0.1664759  0.2499880  0.5020940  )
        16           C   tau(  16) = (  0.1667428  0.4166509  0.5011660  )
        17           C   tau(  17) = (  0.3332094  0.2916767  0.5002640  )
        18           C   tau(  18) = (  0.3332031  0.3750123  0.5008620  )
        19           C   tau(  19) = (  0.5000000  0.2500079  0.4995570  )
        20           C   tau(  20) = (  0.5000000  0.4167046  0.5004690  )
        21           C   tau(  21) = (  0.6667906  0.2916767  0.5002640  )
        22           C   tau(  22) = (  0.6667969  0.3750123  0.5008620  )
        23           C   tau(  23) = (  0.8335241  0.2499880  0.5020940  )
        24           C   tau(  24) = (  0.8332572  0.4166509  0.5011660  )
        25           C   tau(  25) = (  0.0000000  0.5416498  0.4998690  )
        26           C   tau(  26) = (  0.0000000  0.6249802  0.4989970  )
        27           C   tau(  27) = (  0.1667360  0.4999871  0.5003860  )
        28           C   tau(  28) = (  0.1668939  0.6666708  0.5002000  )
        29           C   tau(  29) = (  0.3335095  0.5416841  0.5018070  )
        30           C   tau(  30) = (  0.3334866  0.6250087  0.5023710  )
        31           C   tau(  31) = (  0.5000000  0.5000314  0.5022910  )
        32           C   tau(  32) = (  0.5000000  0.6666706  0.5034650  )
        33           C   tau(  33) = (  0.6664905  0.5416841  0.5018070  )
        34           C   tau(  34) = (  0.6665134  0.6250087  0.5023710  )
        35           C   tau(  35) = (  0.8332640  0.4999871  0.5003860  )
        36           C   tau(  36) = (  0.8331061  0.6666708  0.5002000  )
        37           C   tau(  37) = (  0.0000000  0.7916992  0.4990820  )
        38           C   tau(  38) = (  0.0000000  0.8750298  0.5006590  )
        39           C   tau(  39) = (  0.1668959  0.7500002  0.5003130  )
        40           C   tau(  40) = (  0.1666186  0.9166870  0.5008020  )
        41           C   tau(  41) = (  0.3334155  0.7916498  0.5020430  )
        42           C   tau(  42) = (  0.3334352  0.8749785  0.5011140  )
        43           C   tau(  43) = (  0.5000000  0.7499763  0.5030200  )
        44           C   tau(  44) = (  0.5000000  0.9166339  0.5011610  )
        45           C   tau(  45) = (  0.6665845  0.7916498  0.5020430  )
        46           C   tau(  46) = (  0.6665648  0.8749785  0.5011140  )
        47           C   tau(  47) = (  0.8331041  0.7500002  0.5003130  )
        48           C   tau(  48) = (  0.8333814  0.9166870  0.5008020  )

     number of k points=     6  gaussian smearing, width (Ry)=  0.1000
                       cart. coord. in units 2pi/alat
        k(    1) = (   0.0000000   0.0000000   0.0000000), wk =   0.2500000
        k(    2) = (   0.0000000  -0.2165064   0.0000000), wk =   0.2500000
        k(    3) = (   0.2500000   0.0000000   0.0000000), wk =   0.5000000
        k(    4) = (   0.2500000  -0.2165064   0.0000000), wk =   0.5000000
        k(    5) = (  -0.5000000   0.0000000   0.0000000), wk =   0.2500000
        k(    6) = (  -0.5000000  -0.2165064   0.0000000), wk =   0.2500000

                       cryst. coord.
        k(    1) = (   0.0000000   0.0000000   0.0000000), wk =   0.2500000
        k(    2) = (   0.0000000  -0.5000000   0.0000000), wk =   0.2500000
        k(    3) = (   0.2500000   0.0000000   0.0000000), wk =   0.5000000
        k(    4) = (   0.2500000  -0.5000000   0.0000000), wk =   0.5000000
        k(    5) = (  -0.5000000   0.0000000   0.0000000), wk =   0.2500000
        k(    6) = (  -0.5000000  -0.5000000   0.0000000), wk =   0.2500000

     Largest allocated arrays     est. size (Mb)     dimensions
     Largest temporary arrays     est. size (Mb)     dimensions

     Initial potential from superposition of free atoms

     starting charge  167.99994, renormalised to  192.00000

     negative rho (up, down):  2.497E-06 0.000E+00
     Starting wfc are  384 randomized atomic wfcs

     Self-consistent Calculation

     iteration #  1     ecut=    80.00 Ry     beta=0.70
     Davidson diagonalization with overlap
     ethr =  1.00E-04,  avg # of iterations =  6.3

     total energy              =    -547.77030257 Ry
     Harris-Foulkes estimate   =    -547.99751598 Ry
     estimated scf accuracy    <       1.17345575 Ry

[...]

     total energy              =    -547.72865616 Ry
     Harris-Foulkes estimate   =    -547.72865615 Ry
     estimated scf accuracy    <          2.4E-10 Ry

     iteration # 11     ecut=    80.00 Ry     beta=0.70
     Davidson diagonalization with overlap
     ethr =  1.26E-13,  avg # of iterations =  3.7

     End of self-consistent calculation

          k = 0.0000 0.0000 0.0000 (102525 PWs)   bands (ev):

   -19.9568 -19.5854 -19.5850 -18.4806 -18.4806 -17.9967 -17.9950 -17.6349
   -17.6343 -17.6331 -17.6328 -16.6835 -16.6827 -16.5670 -16.5669 -16.5650
   -16.5649 -14.8753 -14.8747 -14.8741 -14.8734 -14.6655 -13.6733 -12.9914
   -12.9907 -12.9903 -12.9886 -12.1139 -12.1129 -12.1128 -12.1121 -11.1240
   -11.1229 -11.0492 -11.0491 -11.0482 -11.0482 -11.0346 -11.0339  -9.4937
    -9.4931  -9.4923  -9.4914  -9.3327  -9.3322  -9.3318  -9.3310  -8.1860
    -8.1840  -8.0852  -7.8547  -7.8547  -7.6440  -7.6435  -7.0453  -7.0452
    -7.0448  -7.0447  -6.8979  -6.8825  -6.8818  -6.5346  -6.5334  -6.3496
    -6.3495  -6.2284  -6.2279  -6.2276  -6.2273  -5.7872  -5.7858  -5.5226
    -5.5226  -5.3857  -5.3853  -5.3842  -5.3838  -4.8711  -4.8706  -4.3620
    -4.3614  -4.2271  -4.2263  -4.2224  -4.2223  -4.2066  -4.2061  -3.5055
    -3.5037  -2.8040  -2.4613  -2.4611  -2.4611  -2.4599  -0.4344  -0.4322
    -0.4312  -0.4301   1.2604   1.4905   1.4929   1.4934   1.4942   2.6761
     3.1801   3.1802   3.3089   3.3090   3.3115   3.3116   3.3787   3.3800
     4.2541   4.6949   4.6949

     occupation numbers
     1.0000   1.0000   1.0000   1.0000   1.0000   1.0000   1.0000   1.0000
     1.0000   1.0000   1.0000   1.0000   1.0000   1.0000   1.0000   1.0000
     1.0000   1.0000   1.0000   1.0000   1.0000   1.0000   1.0000   1.0000
     1.0000   1.0000   1.0000   1.0000   1.0000   1.0000   1.0000   1.0000
     1.0000   1.0000   1.0000   1.0000   1.0000   1.0000   1.0000   1.0000
     1.0000   1.0000   1.0000   1.0000   1.0000   1.0000   1.0000   1.0000
     1.0000   1.0000   1.0000   1.0000   1.0000   1.0000   1.0000   1.0000
     1.0000   1.0000   1.0000   1.0000   1.0000   1.0000   1.0000   1.0000
     1.0000   1.0000   1.0000   1.0000   1.0000   1.0000   1.0000   1.0000
     1.0000   1.0000   1.0000   1.0000   1.0000   1.0000   1.0000   1.0000
     1.0000   0.9999   0.9999   0.9999   0.9999   0.9999   0.9999   0.9991
     0.9991   0.9916   0.9790   0.9790   0.9790   0.9789   0.4706   0.4696
     0.4693   0.4688   0.0332   0.0190   0.0189   0.0189   0.0188   0.0005
     0.0001   0.0001   0.0000   0.0000   0.0000   0.0000   0.0000   0.0000
     0.0000   0.0000   0.0000

[...]

          k = 0.2500-0.2165 0.0000 (102520 PWs)   bands (ev):

[...]

          k =-0.5000 0.0000 0.0000 (102516 PWs)   bands (ev):

[...]

          k =-0.5000-0.2165 0.0000 (102520 PWs)   bands (ev):

   -19.3740 -19.3740 -19.3643 -19.3643 -18.6332 -18.6332 -18.6331 -18.6331
   -17.1871 -17.1870 -17.1869 -17.1868 -15.5619 -15.5619 -15.5618 -15.5618
   -15.1239 -15.1239 -15.1188 -15.1188 -14.9420 -14.9420 -14.9420 -14.9420
   -13.2454 -13.2454 -13.2452 -13.2451 -12.2811 -12.2811 -12.2805 -12.2805
   -11.5165 -11.5165 -11.5163 -11.5163  -9.4434  -9.4433  -9.4432  -9.4432
    -8.8196  -8.8196  -8.8195  -8.8195  -8.5892  -8.5891  -8.5881  -8.5881
    -7.7208  -7.7208  -7.7207  -7.7207  -7.3923  -7.3923  -7.3846  -7.3846
    -7.1745  -7.1744  -7.1739  -7.1738  -7.1700  -7.1699  -7.1692  -7.1691
    -6.5246  -6.5245  -6.5245  -6.5245  -5.8480  -5.8480  -5.8478  -5.8477
    -5.5456  -5.5455  -5.5380  -5.5379  -4.8686  -4.8685  -4.8684  -4.8683
    -4.5588  -4.5586  -4.5535  -4.5534  -3.1341  -3.1341  -3.1340  -3.1340
    -2.8684  -2.8684  -2.8684  -2.8683  -2.7680  -2.7679  -2.7609  -2.7609
     1.4233   1.4234   1.4236   1.4236   1.6884   1.6885   1.6928   1.6929
     2.2228   2.2228   2.2230   2.2230   3.4758   3.4758   3.4769   3.4769
     4.5165   4.5170   4.5172

     occupation numbers
     1.0000   1.0000   1.0000   1.0000   1.0000   1.0000   1.0000   1.0000
     1.0000   1.0000   1.0000   1.0000   1.0000   1.0000   1.0000   1.0000
     1.0000   1.0000   1.0000   1.0000   1.0000   1.0000   1.0000   1.0000
     1.0000   1.0000   1.0000   1.0000   1.0000   1.0000   1.0000   1.0000
     1.0000   1.0000   1.0000   1.0000   1.0000   1.0000   1.0000   1.0000
     1.0000   1.0000   1.0000   1.0000   1.0000   1.0000   1.0000   1.0000
     1.0000   1.0000   1.0000   1.0000   1.0000   1.0000   1.0000   1.0000
     1.0000   1.0000   1.0000   1.0000   1.0000   1.0000   1.0000   1.0000
     1.0000   1.0000   1.0000   1.0000   1.0000   1.0000   1.0000   1.0000
     1.0000   1.0000   1.0000   1.0000   1.0000   1.0000   1.0000   1.0000
     1.0000   1.0000   1.0000   1.0000   0.9969   0.9969   0.9969   0.9969
     0.9930   0.9930   0.9930   0.9930   0.9907   0.9907   0.9905   0.9905
     0.0225   0.0225   0.0225   0.0225   0.0113   0.0113   0.0112   0.0112
     0.0023   0.0023   0.0023   0.0023   0.0000   0.0000   0.0000   0.0000
     0.0000   0.0000   0.0000

     the Fermi energy is    -0.5054 ev

!    total energy              =    -547.72865616 Ry
     Harris-Foulkes estimate   =    -547.72865616 Ry
     estimated scf accuracy    <          9.6E-12 Ry

     The total energy is the sum of the following terms:

     one-electron contribution =   -2189.49207316 Ry
     hartree contribution      =    1136.94492018 Ry
     xc contribution           =    -168.59391760 Ry
     ewald contribution        =     673.79121756 Ry
     Dispersion Correction     =      -0.19411171 Ry
     smearing contrib. (-TS)   =      -0.18469142 Ry

     convergence has been achieved in  11 iterations

     Writing output data file graphene.save

     General routines

     Parallel routines

   This run was terminated on:  17:54:59  19Apr2017

   JOB DONE.