     Program PWSCF v.5.4.0 starts on  6Sep2017 at 16:56:52

     Current dimensions of program PWSCF are:
     Max number of different atomic species (ntypx) = 10
     Max number of k-points (npk) =  40000
     Max angular momentum in pseudopotentials (lmaxx) =  3
     WARNING: atomic wfc #  2 for atom type 4 has zero norm
     WARNING: atomic wfc #  4 for atom type 4 has zero norm
     WARNING: atomic wfc #  5 for atom type 4 has zero norm

     Parameters for Dispersion Correction:
       atom      VdW radius       C_6

        Cu         2.952        374.666
        C_h        2.744         60.710
        C          2.744         60.710
        O          2.536         24.284
        H          1.892          4.857

     bravais-lattice index     =            0
     lattice parameter (alat)  =      13.9425  a.u.
     unit-cell volume          =   21209.0878 (a.u.)^3
     number of atoms/cell      =          150
     number of atomic types    =            5
     number of electrons       =      1302.00
     number of Kohn-Sham states=          781
     kinetic-energy cutoff     =      80.0000  Ry
     charge density cutoff     =     320.0000  Ry
     convergence threshold     =      1.0E-08
     mixing beta               =       0.7000
     number of iterations used =            8  local-TF  mixing
     Exchange-correlation      =  SLA  PW   PBE  PBE ( 1  4  3  4 0 0)

     celldm(1)=  13.942539  celldm(2)=   0.000000  celldm(3)=   0.000000
     celldm(4)=   0.000000  celldm(5)=   0.000000  celldm(6)=   0.000000

     crystal axes: (cart. coord. in units of alat)
               a(1) = (   1.000000   0.000000   0.000000 )
               a(2) = (   0.000000   2.309401   0.000000 )
               a(3) = (   0.000000   0.000000   3.388418 )

     reciprocal axes: (cart. coord. in units 2 pi/alat)
               b(1) = (  1.000000  0.000000  0.000000 )
               b(2) = (  0.000000  0.433013  0.000000 )
               b(3) = (  0.000000  0.000000  0.295123 )

     PseudoPot. # 1 for Cu read from file:
     /home/549/hxw549/Short/pseudopotentials/Cu.pbe-n-van_ak.UPF
     MD5 check sum: 601f7c30f7467666bec936e0661ce3e1
     Pseudo is Ultrasoft + core correction, Zval = 11.0
     Generated by new atomic code, or converted to UPF format
     Using radial grid of  867 points,  6 beta functions with:
                l(1) =   0
                l(2) =   0
                l(3) =   1
                l(4) =   1
                l(5) =   2
                l(6) =   2
     Q(r) pseudized with  8 coefficients,  rinner =    1.400   1.400   1.400
                                                       1.400   1.400

     PseudoPot. # 2 for C  read from file:
     /home/549/hxw549/Short/pseudopotentials/C.star1s-pbe-mt_gipaw.UPF
     MD5 check sum: ef0cb3dee31bd9e4ba2a832a2c716264
     Pseudo is Norm-conserving, Zval =  5.0
     Generated by new atomic code, or converted to UPF format
     Using radial grid of 1073 points,  1 beta functions with:
                l(1) =   0

     PseudoPot. # 3 for C  read from file:
     /home/549/hxw549/Short/pseudopotentials/C.pbe-mt_gipaw.UPF
     MD5 check sum: 5ac2f21f2c440b14befe521540822c15
     Pseudo is Norm-conserving, Zval =  4.0
     Generated by new atomic code, or converted to UPF format
     Using radial grid of 1073 points,  1 beta functions with:
                l(1) =   0

     PseudoPot. # 4 for O  read from file:
     /home/549/hxw549/Short/pseudopotentials/O.pbe-van_gipaw.UPF
     MD5 check sum: 5ce2a047509d4f331db576c963e74b29
     Pseudo is Ultrasoft, Zval =  6.0
     Generated by new atomic code, or converted to UPF format
     Using radial grid of 1095 points,  4 beta functions with:
                l(1) =   0
                l(2) =   0
                l(3) =   1
                l(4) =   1
     Q(r) pseudized with 0 coefficients

     PseudoPot. # 5 for H  read from file:
     /home/549/hxw549/Short/pseudopotentials/H.pbe-van_ak.UPF
     MD5 check sum: 077eb6d537518a38cb46c6de387227b7
     Pseudo is Ultrasoft, Zval =  1.0
     Generated by new atomic code, or converted to UPF format
     Using radial grid of  615 points,  1 beta functions with:
                l(1) =   0
     Q(r) pseudized with  8 coefficients,  rinner =    0.800

     atomic species   valence    mass     pseudopotential
        Cu            11.00    63.54600     Cu( 1.00)
        C_h            5.00    12.01070     C ( 1.00)
        C              4.00    12.01070     C ( 1.00)
        O              6.00    15.99940     O ( 1.00)
        H              1.00     1.00783     H ( 1.00)

     No symmetry found

   Cartesian axes

     site n.     atom                  positions (alat units)
         1           Cu  tau(   1) = (   0.0000796  -0.0010194   0.9996711  )
         2           Cu  tau(   2) = (   0.2500655   0.2302525   0.9998070  )
         3           Cu  tau(   3) = (   0.5000782  -0.0009871   0.9997096  )
         4           Cu  tau(   4) = (   0.7500925   0.2302455   0.9998059  )
         5           Cu  tau(   5) = (   0.0000785   0.4612871   0.9997269  )
         6           Cu  tau(   6) = (   0.2500641   0.6920697   0.9993800  )
         7           Cu  tau(   7) = (   0.5000814   0.4612918   0.9996504  )
         8           Cu  tau(   8) = (   0.7500985   0.6920755   0.9993862  )
         9           Cu  tau(   9) = (   0.0000831   0.9226495   0.9992261  )
        10           Cu  tau(  10) = (   0.2501082   1.1530621   0.9994448  )
        11           Cu  tau(  11) = (   0.5000823   0.9225993   0.9992402  )
        12           Cu  tau(  12) = (   0.7500588   1.1530635   0.9994423  )
        13           Cu  tau(  13) = (   0.0000837   1.3835599   0.9997329  )
        14           Cu  tau(  14) = (   0.2500624   1.6144357   0.9998048  )
        15           Cu  tau(  15) = (   0.5000842   1.3836349   0.9997726  )
        16           Cu  tau(  16) = (   0.7501032   1.6144320   0.9998040  )
        17           Cu  tau(  17) = (   0.0000797   1.8456347   0.9996583  )
        18           Cu  tau(  18) = (   0.2500996   2.0770019   0.9995635  )
        19           Cu  tau(  19) = (   0.5000828   1.8455838   0.9996249  )
        20           Cu  tau(  20) = (   0.7500601   2.0770024   0.9995695  )
        21           Cu  tau(  21) = (   0.0000762   0.2300880   1.2478020  )
        22           Cu  tau(  22) = (   0.2500749  -0.0011159   1.2475204  )
        23           Cu  tau(  23) = (   0.5000774   0.2302010   1.2477392  )
        24           Cu  tau(  24) = (   0.7500776  -0.0011076   1.2475295  )
        25           Cu  tau(  25) = (   0.0000791   0.6922011   1.2480278  )
        26           Cu  tau(  26) = (   0.2500708   0.4613499   1.2479295  )
        27           Cu  tau(  27) = (   0.5000781   0.6921136   1.2479976  )
        28           Cu  tau(  28) = (   0.7500843   0.4613461   1.2479221  )
        29           Cu  tau(  29) = (   0.0000792   1.1528664   1.2482450  )
        30           Cu  tau(  30) = (   0.2500767   0.9225201   1.2481436  )
        31           Cu  tau(  31) = (   0.5000811   1.1528467   1.2482331  )
        32           Cu  tau(  32) = (   0.7500827   0.9225211   1.2481488  )
        33           Cu  tau(  33) = (   0.0000796   1.6146638   1.2478472  )
        34           Cu  tau(  34) = (   0.2500780   1.3835920   1.2481526  )
        35           Cu  tau(  35) = (   0.5000826   1.6147432   1.2478907  )
        36           Cu  tau(  36) = (   0.7500845   1.3835882   1.2481608  )
        37           Cu  tau(  37) = (   0.0000753   2.0771625   1.2473394  )
        38           Cu  tau(  38) = (   0.2500797   1.8459518   1.2474804  )
        39           Cu  tau(  39) = (   0.5000788   2.0770921   1.2473374  )
        40           Cu  tau(  40) = (   0.7500786   1.8459481   1.2474855  )
        41           Cu  tau(  41) = (   0.0000736  -0.0014157   1.4968003  )
        42           Cu  tau(  42) = (   0.2501054   0.2298053   1.4967075  )
        43           Cu  tau(  43) = (   0.5000753  -0.0013072   1.4965172  )
        44           Cu  tau(  44) = (   0.7500440   0.2298195   1.4967296  )
        45           Cu  tau(  45) = (   0.0000715   0.4610974   1.4969703  )
        46           Cu  tau(  46) = (   0.2500888   0.6919294   1.4977424  )
        47           Cu  tau(  47) = (   0.5000768   0.4610199   1.4971307  )
        48           Cu  tau(  48) = (   0.7500576   0.6919217   1.4977398  )
        49           Cu  tau(  49) = (   0.0000730   0.9224488   1.4981802  )
        50           Cu  tau(  50) = (   0.2499887   1.1529644   1.4978341  )
        51           Cu  tau(  51) = (   0.5000709   0.9223233   1.4980553  )
        52           Cu  tau(  52) = (   0.7501545   1.1529594   1.4978490  )
        53           Cu  tau(  53) = (   0.0000770   1.3839580   1.4973583  )
        54           Cu  tau(  54) = (   0.2500530   1.6153014   1.4967700  )
        55           Cu  tau(  55) = (   0.5000690   1.3839959   1.4971714  )
        56           Cu  tau(  56) = (   0.7500984   1.6153015   1.4967707  )
        57           Cu  tau(  57) = (   0.0000733   1.8464668   1.4964703  )
        58           Cu  tau(  58) = (   0.2500842   2.0772456   1.4966335  )
        59           Cu  tau(  59) = (   0.5000792   1.8465124   1.4966717  )
        60           Cu  tau(  60) = (   0.7500644   2.0772510   1.4966332  )
[...]
       134           C   tau( 134) = (   0.6668966   1.4466375   2.3882526  )
       135           C   tau( 135) = (   0.8336471   1.1579389   2.3824963  )
       136           C   tau( 136) = (   0.8335007   1.5428799   2.3852986  )
       137           C   tau( 137) = (   0.0003615   1.8316508   2.3835264  )
       138           C   tau( 138) = (   0.0003333   2.0241360   2.3864695  )
       139           C   tau( 139) = (   0.1672436   1.7353275   2.3855411  )
       140           C   tau( 140) = (   0.1669289   2.1203047   2.3860356  )
       141           C   tau( 141) = (   0.3337845   1.8314735   2.3877347  )
       142           C   tau( 142) = (   0.3337475   2.0239656   2.3853679  )
       143           C   tau( 143) = (   0.5003620   1.7352461   2.3894686  )
       144           C   tau( 144) = (   0.5003277   2.1201495   2.3841265  )
       145           C   tau( 145) = (   0.6669386   1.8314724   2.3878035  )
       146           C   tau( 146) = (   0.6669171   2.0239714   2.3854075  )
       147           C   tau( 147) = (   0.8334847   1.7353460   2.3856745  )
       148           C   tau( 148) = (   0.8337301   2.1203065   2.3860703  )
       149           C_h tau( 149) = (   0.4817526   0.9548742   2.8124093  )
       150           O   tau( 150) = (   0.3804061   1.0742193   2.8105827  )

     number of k points=     6  gaussian smearing, width (Ry)=  0.1000
                       cart. coord. in units 2pi/alat
        k(    1) = (   0.0000000   0.0000000   0.0000000), wk =   0.2500000
        k(    2) = (   0.0000000  -0.2165064   0.0000000), wk =   0.2500000
        k(    3) = (   0.2500000   0.0000000   0.0000000), wk =   0.5000000
        k(    4) = (   0.2500000  -0.2165064   0.0000000), wk =   0.5000000
        k(    5) = (  -0.5000000   0.0000000   0.0000000), wk =   0.2500000
        k(    6) = (  -0.5000000  -0.2165064   0.0000000), wk =   0.2500000

     Largest allocated arrays     est. size (Mb)     dimensions
     Largest temporary arrays     est. size (Mb)     dimensions

     Initial potential from superposition of free atoms
     Check: negative starting charge=   -0.001649

     starting charge 1276.31751, renormalised to 1302.00000

     negative rho (up, down):  1.683E-03 0.000E+00
     Starting wfc are 1296 randomized atomic wfcs

     Self-consistent Calculation

     iteration #  1     ecut=    80.00 Ry     beta=0.70
     Davidson diagonalization with overlap
     ethr =  1.00E-04,  avg # of iterations = 21.2

     negative rho (up, down):  2.896E+01 0.000E+00

     total energy              =   -9522.06301471 Ry
     Harris-Foulkes estimate   =  -17458.66303675 Ry
     estimated scf accuracy    <  185367.54293139 Ry

[...]

     iteration # 31     ecut=    80.00 Ry     beta=0.70
     Davidson diagonalization with overlap
     c_bands:  1 eigenvalues not converged
     c_bands:  1 eigenvalues not converged
     ethr =  4.29E-07,  avg # of iterations = 15.5

[...]

     iteration # 34     ecut=    80.00 Ry     beta=0.70
     Davidson diagonalization with overlap
     c_bands:  1 eigenvalues not converged
     c_bands:  1 eigenvalues not converged
     ethr =  1.55E-08,  avg # of iterations = 10.8

[...]

     total energy              =  -12750.25419244 Ry
     Harris-Foulkes estimate   =  -12750.25419245 Ry
     estimated scf accuracy    <       0.00000002 Ry

     iteration # 42     ecut=    80.00 Ry     beta=0.70
     Davidson diagonalization with overlap
     ethr =  1.81E-12,  avg # of iterations =  2.5

     negative rho (up, down):  1.854E-03 0.000E+00

     End of self-consistent calculation

          k = 0.0000 0.0000 0.0000 (256287 PWs)   bands (ev):

   -22.7710 -16.3420 -15.9724 -15.9671 -14.8643 -14.8629 -14.3791 -14.3775
   -14.0188 -14.0177 -14.0143 -14.0121 -13.0647 -13.0623 -12.9481 -12.9470
   -12.9467 -12.9451 -11.2545 -11.2532 -11.2523 -11.2508 -11.0448 -10.0496
    -9.3681  -9.3671  -9.3652  -9.3650  -8.4909  -8.4884  -8.4880  -8.4844
    -7.4995  -7.4967  -7.4255  -7.4236  -7.4224  -7.4205  -7.4080  -7.4075
    -7.2809  -6.0209  -5.8686  -5.8663  -5.8648  -5.8623  -5.7048  -5.7037
    -5.7031  -5.7021  -5.4877  -5.4855  -5.0940  -4.7720  -4.6586  -4.5863
    -4.5806  -4.5555  -4.5541  -4.5064  -4.2258  -4.2252  -4.0990  -4.0867
    -3.9898  -3.9896  -3.4148  -3.4132  -3.4129  -3.4119  -3.4092  -3.4085
    -3.2654  -3.2518  -3.2501  -3.2236  -3.2175  -3.1724  -3.0107  -3.0100
    -3.0082  -3.0081  -2.9032  -2.8998  -2.8839  -2.8054  -2.7754  -2.7329
    -2.7202  -2.6624  -2.6476  -2.5965  -2.5958  -2.5951  -2.5933  -2.3630
    -2.3613  -2.3609  -2.3581  -2.2985  -2.2912  -2.1942  -2.1941  -2.1546
    -2.1544  -2.1541  -2.1538  -2.0293  -2.0246  -2.0233  -2.0222  -2.0222
    -2.0211  -2.0210  -2.0179  -1.9523  -1.8903  -1.8895  -1.8393  -1.7781
    -1.7381  -1.7379  -1.7373  -1.7372  -1.6830  -1.6824  -1.6727  -1.6599
    -1.6576  -1.5966  -1.5878  -1.5636  -1.5631  -1.5616  -1.5598  -1.5269
    -1.5267  -1.5255  -1.5243  -1.5167  -1.5147  -1.4344  -1.4336  -1.4147
    -1.3693  -1.3682  -1.3680  -1.3665  -1.3529  -1.2990  -1.2629  -1.2612
    -1.2516  -1.2413  -1.2369  -1.2119  -1.2110  -1.1921  -1.1896  -1.1671
    -1.1638  -1.1152  -1.1092  -1.0911  -1.0909  -1.0896  -1.0878  -1.0468
    -1.0437  -1.0314  -1.0229  -1.0222  -1.0206  -1.0204  -1.0191  -1.0186
    -1.0145  -1.0143  -0.9960  -0.9584  -0.9566  -0.9507  -0.9247  -0.9237
    -0.9218  -0.9166  -0.9162  -0.9152  -0.8576  -0.8563  -0.8553  -0.8552
    -0.8540  -0.8532  -0.8524  -0.8498  -0.8491  -0.8484  -0.8483  -0.8459
    -0.8435  -0.8423  -0.8422  -0.8252  -0.8251  -0.7845  -0.7713  -0.7700
    -0.7681  -0.7653  -0.6888  -0.6888  -0.6842  -0.6839  -0.6564  -0.6553
    -0.6409  -0.6409  -0.6171  -0.6170  -0.6015  -0.6012  -0.6004  -0.6000
    -0.5832  -0.5785  -0.5749  -0.5629  -0.5626  -0.5604  -0.5599  -0.5515
    -0.5507  -0.5387  -0.5381  -0.4909  -0.4908  -0.4378  -0.4376  -0.4255
    -0.4239  -0.4233  -0.4222  -0.4061  -0.4060  -0.4025  -0.4025  -0.4021
    -0.4021  -0.3992  -0.3991  -0.3834  -0.3834  -0.3683  -0.3681  -0.3677
    -0.3675  -0.3514  -0.3507  -0.2979  -0.2955  -0.2951  -0.2885  -0.2883
    -0.2615  -0.2614  -0.2605  -0.2604  -0.2429  -0.2426  -0.2414  -0.2414
    -0.2404  -0.2162  -0.2158  -0.2150  -0.2145  -0.2097  -0.2095  -0.2088
    -0.2086  -0.2071  -0.2038  -0.1871  -0.1863  -0.1857  -0.1849  -0.1843
    -0.1654  -0.1167  -0.1165  -0.1143  -0.1141  -0.1078  -0.0652  -0.0647
    -0.0632  -0.0626  -0.0604  -0.0602  -0.0598  -0.0597  -0.0594  -0.0420
    -0.0410  -0.0062  -0.0053  -0.0010  -0.0005   0.0008   0.0253   0.0255
     0.0289   0.0291   0.0300   0.0334   0.0488   0.0496   0.0498   0.0500
     0.0513   0.0519   0.0671   0.0673   0.0676   0.0677   0.0801   0.0805
     0.0806   0.0814   0.1043   0.1052   0.1266   0.1293   0.1385   0.1399
     0.1710   0.1714   0.1727   0.1733   0.1970   0.2004   0.2397   0.2401
     0.2409   0.2418   0.2427   0.2460   0.2765   0.2787   0.2787   0.2796
     0.2801   0.2821   0.2891   0.2902   0.3277   0.3472   0.3473   0.3518
     0.3536   0.3543   0.3555   0.3558   0.3794   0.3892   0.3900   0.3902
     0.3904   0.4244   0.4268   0.4271   0.4279   0.4283   0.4434   0.4446
     0.4453   0.4460   0.4856   0.4859   0.4989   0.4994   0.5001   0.5016
     0.5019   0.5142   0.5314   0.5336   0.5363   0.5385   0.5394   0.5410
     0.5412   0.5413   0.5479   0.5505   0.5511   0.5598   0.5608   0.5611
     0.5620   0.5705   0.5706   0.5985   0.6120   0.6122   0.6212   0.6229
     0.6543   0.6548   0.6551   0.6555   0.6580   0.6580   0.6581   0.6583
     0.6694   0.6704   0.6808   0.6844   0.6848   0.6864   0.6889   0.6940
     0.6940   0.7057   0.7066   0.7155   0.7264   0.7267   0.7268   0.7272
     0.7379   0.7384   0.7496   0.7531   0.7551   0.7551   0.7590   0.7601
     0.7604   0.7630   0.7739   0.8046   0.8089   0.8116   0.8117   0.8119
     0.8189   0.8246   0.8255   0.8302   0.8304   0.8306   0.8317   0.8618
     0.8625   0.8780   0.8789   0.8821   0.8823   0.8968   0.8969   0.9055
     0.9068   0.9083   0.9090   0.9132   0.9282   0.9419   0.9444   0.9450
     0.9467   0.9472   0.9485   0.9667   0.9727   0.9820   0.9914   0.9914
[...]
     3.9041   3.9549   3.9558   3.9732   4.0128   4.0133   4.0138   4.0143
     4.0163   4.0298   4.0387   4.0452   4.2692   4.2702   4.2749   4.2790
     4.4516   4.6189   4.7662   4.9985   5.0012   5.0267   5.0344   5.3148
     5.4344   5.4443   5.4584   5.7419   5.7455   5.7470   5.7535   5.9338
     5.9377   6.3809   6.3838   6.3973   6.4178   6.4997   6.5011   6.5038
     6.5083   6.6676   6.6681   6.6694   6.6714   6.8285   6.8330   6.8351
     6.8381   6.9167   6.9351   7.0652   7.1048   7.1075   7.1092   7.1110
     7.1165   7.3647   7.3689   7.5942   7.5947   7.6940   7.7077   7.7080
     7.7224   7.7259   8.1146   8.1442   8.2272   8.2464   8.2553   8.3386
     8.3387   8.3460   8.3531   8.3711   8.3974   8.4003   8.4517   8.4629
     8.5631   8.6319   8.6399   8.6434   8.6440   8.7000   8.7017   8.7036
     8.7058   8.8591   8.8600   8.8605   8.8624   8.8644   8.8712   9.1412
     9.1457   9.1486   9.1503   9.1524   9.1661   9.1884   9.3569   9.3607
     9.5364   9.5433   9.5519   9.5865   9.5868   9.6047   9.7298   9.7418
     9.8364  10.0486  10.0492  10.2005  10.2252

[...]

          k = 0.2500-0.2165 0.0000 (256316 PWs)   bands (ev):

[...]

          k =-0.5000 0.0000 0.0000 (256496 PWs)   bands (ev):

[...]

          k =-0.5000-0.2165 0.0000 (256328 PWs)   bands (ev):

   -22.7710 -15.7578 -15.7547 -15.7516 -15.7498 -15.0184 -15.0166 -15.0159
   -15.0147 -13.5697 -13.5689 -13.5677 -13.5670 -11.9438 -11.9429 -11.9391
   -11.9387 -11.5024 -11.5007 -11.4999 -11.4987 -11.3228 -11.3207 -11.3191
   -11.3190  -9.6233  -9.6229  -9.6208  -9.6200  -8.6607  -8.6599  -8.6515
    -8.6509  -7.8925  -7.8924  -7.8899  -7.8898  -7.2827  -5.8162  -5.8156
    -5.8148  -5.8143  -5.1938  -5.1933  -5.1919  -5.1916  -5.1817  -5.1813
    -5.1811  -5.1807  -4.9668  -4.9646  -4.9543  -4.9521  -4.7477  -4.6584
    -4.3205  -4.3144  -4.3064  -4.2838  -4.2003  -4.2001  -4.2000  -4.1993
    -4.0921  -4.0912  -4.0908  -4.0899  -3.8427  -3.8399  -3.8357  -3.8261
    -3.5438  -3.5428  -3.5416  -3.5413  -3.5406  -3.5398  -3.5396  -3.5387
    -3.4315  -3.4287  -3.4270  -3.4260  -3.0483  -3.0231  -3.0227  -3.0213
    -2.7863  -2.5816  -2.5815  -2.5812  -2.5810  -2.5162  -2.5155  -2.5150
    -2.5089  -2.2178  -2.2171  -2.2156  -2.2152  -2.0941  -2.0938  -2.0938
    -2.0932  -2.0101  -2.0092  -2.0088  -2.0075  -1.9143  -1.9119  -1.9097
    -1.9072  -1.8051  -1.8050  -1.8037  -1.8035  -1.6989  -1.6979  -1.6968
    -1.6943  -1.4951  -1.4949  -1.4948  -1.4948  -1.4754  -1.4744  -1.4741
    -1.4716  -1.4518  -1.4512  -1.4480  -1.4470  -1.4326  -1.4324  -1.4300
    -1.4300  -1.3858  -1.3855  -1.3855  -1.3853  -1.3834  -1.3832  -1.3827
    -1.3823  -1.3585  -1.3584  -1.3582  -1.3581  -1.3076  -1.3071  -1.3066
    -1.3065  -1.2286  -1.2285  -1.2274  -1.2272  -1.1904  -1.1903  -1.1902
    -1.1901  -1.1719  -1.1718  -1.1717  -1.1715  -1.1194  -1.1194  -1.1192
    -1.1192  -1.1138  -1.1138  -1.1138  -1.1138  -1.0810  -1.0808  -1.0806
    -1.0800  -1.0580  -1.0580  -1.0570  -1.0566  -1.0409  -1.0408  -1.0399
    -1.0396  -1.0359  -1.0358  -1.0352  -1.0351  -0.9309  -0.9295  -0.9161
    -0.9147  -0.8808  -0.8808  -0.8800  -0.8797  -0.8536  -0.8536  -0.8532
    -0.8532  -0.7683  -0.7682  -0.7678  -0.7676  -0.7627  -0.7626  -0.7623
    -0.7622  -0.7597  -0.7595  -0.7593  -0.7591  -0.6995  -0.6995  -0.6992
    -0.6990  -0.6874  -0.6872  -0.6859  -0.6858  -0.6663  -0.6661  -0.6651
    -0.6648  -0.5700  -0.5699  -0.5695  -0.5694  -0.5646  -0.5646  -0.5635
    -0.5634  -0.4963  -0.4962  -0.4959  -0.4958  -0.4459  -0.4458  -0.4456
    -0.4454  -0.4250  -0.4250  -0.4246  -0.4244  -0.3983  -0.3982  -0.3964
    -0.3962  -0.3865  -0.3864  -0.3858  -0.3856  -0.3460  -0.3457  -0.3450
    -0.3447  -0.2730  -0.2728  -0.2717  -0.2716  -0.2555  -0.2555  -0.2548
    -0.2547  -0.2380  -0.2379  -0.2372  -0.2371  -0.1542  -0.1540  -0.1537
    -0.1535  -0.1500  -0.1500  -0.1493  -0.1492  -0.1470  -0.1469  -0.1467
    -0.1466  -0.1072  -0.1071  -0.1070  -0.1070  -0.0951  -0.0950  -0.0945
    -0.0944  -0.0926  -0.0926  -0.0924  -0.0924  -0.0229  -0.0228  -0.0218
    -0.0215   0.0015   0.0015   0.0024   0.0024   0.0538   0.0542   0.0589
     0.0589   0.0744   0.0756   0.0786   0.0789   0.0868   0.0871   0.0878
     0.0879   0.0924   0.0926   0.0945   0.0947   0.0951   0.0957   0.0969
     0.0970   0.1051   0.1052   0.1069   0.1069   0.1120   0.1120   0.1143
     0.1144   0.1278   0.1278   0.1283   0.1284   0.1566   0.1567   0.1571
     0.1572   0.1660   0.1661   0.1667   0.1668   0.2134   0.2136   0.2144
     0.2145   0.2465   0.2465   0.2466   0.2468   0.3180   0.3201   0.3231
     0.3235   0.3308   0.3312   0.3328   0.3329   0.3469   0.3473   0.3475
     0.3478   0.3624   0.3627   0.3646   0.3646   0.3654   0.3659   0.3676
     0.3683   0.3727   0.3734   0.3744   0.3746   0.3861   0.3874   0.3880
     0.3884   0.4098   0.4119   0.4136   0.4138   0.4594   0.4599   0.4603
     0.4608   0.4628   0.4629   0.4645   0.4647   0.4755   0.4755   0.4759
     0.4760   0.5117   0.5119   0.5134   0.5136   0.5138   0.5141   0.5148
     0.5149   0.5591   0.5593   0.5594   0.5597   0.5709   0.5709   0.5717
     0.5717   0.5779   0.5780   0.5791   0.5796   0.5801   0.5802   0.5804
     0.5810   0.5966   0.5968   0.5973   0.5975   0.6136   0.6138   0.6144
     0.6146   0.6821   0.6826   0.6847   0.6851   0.6862   0.6865   0.6870
     0.6878   0.6977   0.6978   0.6985   0.6987   0.7179   0.7184   0.7220
     0.7227   0.7342   0.7342   0.7351   0.7352   0.7370   0.7372   0.7375
     0.7375   0.7882   0.7884   0.7901   0.7903   0.8165   0.8168   0.8176
     0.8178   0.8440   0.8446   0.8462   0.8466   0.8522   0.8524   0.8529
     0.8530   0.8772   0.8777   0.8797   0.8799   0.9293   0.9294   0.9305
     0.9306   0.9634   0.9636   0.9646   0.9648   1.0167   1.0169   1.0179
[...]
     4.2312   4.2342   4.2353   4.3579   4.3587   4.3659   4.3698   4.5741
     4.5755   4.5770   4.5781   4.6083   4.6120   4.6145   4.6167   4.9162
     4.9173   4.9199   4.9254   5.0846   5.0854   5.1102   5.1117   5.1859
     5.1863   5.1913   5.1915   5.3263   5.3300   5.3508   5.3534   5.3762
     5.3808   5.3813   5.3816   5.7497   5.7511   5.7516   5.7521   5.7694
     5.7698   5.7779   5.7780   5.9214   5.9223   5.9334   5.9441   6.7823
     6.7826   6.7883   6.7884   7.1362   7.1371   7.1397   7.1408   7.1708
     7.1710   7.1723   7.1724   7.3115   7.3127   7.3158   7.3234   7.3765
     7.3766   7.3771   7.3772   7.6428   7.6444   7.6476   7.6498   7.9900
     7.9940   7.9990   7.9994   8.0742   8.0765   8.0832   8.0860   8.2546
     8.2550   8.2621   8.2627   8.3472   8.4164   8.4335   8.6467   8.9114
     8.9115   8.9119   8.9121   8.9309   8.9322   8.9326   8.9440   8.9814
     8.9815   8.9818   8.9822   9.1545   9.1574   9.1612   9.1677   9.3552
     9.3771   9.4077   9.5548   9.5557   9.5760   9.5763   9.5953   9.6086
     9.6097   9.6133   9.6520   9.9609  10.0175

     the Fermi energy is     3.3280 ev

!    total energy              =  -12750.25419240 Ry
     Harris-Foulkes estimate   =  -12750.25419245 Ry
     estimated scf accuracy    <          6.0E-09 Ry

     The total energy is the sum of the following terms:

     one-electron contribution = -108198.78628637 Ry
     hartree contribution      =   55466.28494597 Ry
     xc contribution           =   -4458.01767728 Ry
     ewald contribution        =   44446.68307080 Ry
     Dispersion Correction     =      -3.00619749 Ry
     smearing contrib. (-TS)   =      -3.41204803 Ry

     convergence has been achieved in  42 iterations

     Writing output data file gc.save

     General routines

     Parallel routines

   This run was terminated on:  23:55:53   6Sep2017

   JOB DONE.