     Program PWSCF v.5.4.0 starts on 26Apr2017 at 21: 9:32

     Current dimensions of program PWSCF are:
     Max number of different atomic species (ntypx) = 10
     Max number of k-points (npk) =  40000
     Max angular momentum in pseudopotentials (lmaxx) =  3

     Parameters for Dispersion Correction:
       atom      VdW radius       C_6

        Cu         2.952        374.666
        C_h        2.744         60.710
        C          2.744         60.710

     bravais-lattice index     =            0
     lattice parameter (alat)  =      13.9425  a.u.
     unit-cell volume          =   21209.0878 (a.u.)^3
     number of atoms/cell      =          149
     number of atomic types    =            3
     number of electrons       =      1296.00
     number of Kohn-Sham states=          778
     kinetic-energy cutoff     =      80.0000  Ry
     charge density cutoff     =     320.0000  Ry
     convergence threshold     =      1.0E-08
     mixing beta               =       0.7000
     number of iterations used =            8  local-TF  mixing
     Exchange-correlation      =  SLA  PW   PBX  PBC ( 1  4  3  4 0 0)

     celldm(1)=  13.942539  celldm(2)=   0.000000  celldm(3)=   0.000000
     celldm(4)=   0.000000  celldm(5)=   0.000000  celldm(6)=   0.000000

     crystal axes: (cart. coord. in units of alat)
               a(1) = (   1.000000   0.000000   0.000000 )
               a(2) = (   0.000000   2.309401   0.000000 )
               a(3) = (   0.000000   0.000000   3.388418 )

     reciprocal axes: (cart. coord. in units 2 pi/alat)
               b(1) = (  1.000000  0.000000  0.000000 )
               b(2) = (  0.000000  0.433013  0.000000 )
               b(3) = (  0.000000  0.000000  0.295123 )

     PseudoPot. # 1 for Cu read from file:
     /home/549/hxw549/Short/pseudopotentials/Cu.pbe-n-van_ak.UPF
     MD5 check sum: 601f7c30f7467666bec936e0661ce3e1
     Pseudo is Ultrasoft + core correction, Zval = 11.0
     Generated by new atomic code, or converted to UPF format
     Using radial grid of  867 points,  6 beta functions with:
                l(1) =   0
                l(2) =   0
                l(3) =   1
                l(4) =   1
                l(5) =   2
                l(6) =   2
     Q(r) pseudized with  8 coefficients,  rinner =    1.400   1.400   1.400
                                                       1.400   1.400

     PseudoPot. # 2 for C  read from file:
     /home/549/hxw549/Short/pseudopotentials/C.star1s-pbe-mt_gipaw.UPF
     MD5 check sum: ef0cb3dee31bd9e4ba2a832a2c716264
     Pseudo is Norm-conserving, Zval =  5.0
     Generated by new atomic code, or converted to UPF format
     Using radial grid of 1073 points,  1 beta functions with:
                l(1) =   0

     PseudoPot. # 3 for C  read from file:
     /home/549/hxw549/Short/pseudopotentials/C.pbe-mt_gipaw.UPF
     MD5 check sum: 5ac2f21f2c440b14befe521540822c15
     Pseudo is Norm-conserving, Zval =  4.0
     Generated by new atomic code, or converted to UPF format
     Using radial grid of 1073 points,  1 beta functions with:
                l(1) =   0

     atomic species   valence    mass     pseudopotential
        Cu            11.00    63.54600     Cu( 1.00)
        C_h            5.00    12.01070     C ( 1.00)
        C              4.00    12.01070     C ( 1.00)

     No symmetry found

   Cartesian axes

     site n.     atom                  positions (alat units)
         1           Cu  tau(   1) = (   0.0110438  -0.0114414   0.9956708  )
         2           Cu  tau(   2) = (   0.2614250   0.2200117   0.9954928  )
         3           Cu  tau(   3) = (   0.5115391  -0.0113269   0.9958217  )
         4           Cu  tau(   4) = (   0.7613891   0.2207663   0.9964136  )
         5           Cu  tau(   5) = (   0.0113943   0.4524409   0.9959458  )
         6           Cu  tau(   6) = (   0.2616259   0.6849598   0.9956623  )
         7           Cu  tau(   7) = (   0.5116233   0.4522664   0.9960070  )
         8           Cu  tau(   8) = (   0.7615468   0.6852408   0.9952534  )
         9           Cu  tau(   9) = (   0.0117907   0.9178219   0.9948203  )
        10           Cu  tau(  10) = (   0.2614792   1.1492807   0.9953844  )
        11           Cu  tau(  11) = (   0.5111147   0.9177905   0.9949121  )
        12           Cu  tau(  12) = (   0.7612765   1.1496612   0.9950202  )
        13           Cu  tau(  13) = (   0.0114254   1.3794539   0.9962709  )
        14           Cu  tau(  14) = (   0.2611847   1.6090776   0.9959988  )
        15           Cu  tau(  15) = (   0.5111112   1.3796813   0.9962249  )
        16           Cu  tau(  16) = (   0.7613800   1.6080727   0.9975318  )
        17           Cu  tau(  17) = (   0.0110525   1.8373497   0.9965526  )
        18           Cu  tau(  18) = (   0.2611022   2.0668146   0.9957100  )
        19           Cu  tau(  19) = (   0.5115353   1.8374206   0.9969094  )
        20           Cu  tau(  20) = (   0.7612623   2.0673174   0.9965234  )
        21           Cu  tau(  21) = (   0.0115865   0.2202931   1.2432999  )
        22           Cu  tau(  22) = (   0.2615067  -0.0113668   1.2436810  )
        23           Cu  tau(  23) = (   0.5121153   0.2200524   1.2432997  )
        24           Cu  tau(  24) = (   0.7615741  -0.0112684   1.2444258  )
        25           Cu  tau(  25) = (   0.0120879   0.6858149   1.2420612  )
        26           Cu  tau(  26) = (   0.2622035   0.4521150   1.2414827  )
        27           Cu  tau(  27) = (   0.5126220   0.6861224   1.2423676  )
        28           Cu  tau(  28) = (   0.7623117   0.4531408   1.2429278  )
        29           Cu  tau(  29) = (   0.0120951   1.1485183   1.2441321  )
        30           Cu  tau(  30) = (   0.2624932   0.9175385   1.2431955  )
        31           Cu  tau(  31) = (   0.5125517   1.1484323   1.2441895  )
        32           Cu  tau(  32) = (   0.7623301   0.9177824   1.2425979  )
        33           Cu  tau(  33) = (   0.0115999   1.6080459   1.2472319  )
        34           Cu  tau(  34) = (   0.2621348   1.3794321   1.2445920  )
        35           Cu  tau(  35) = (   0.5121119   1.6081595   1.2471170  )
        36           Cu  tau(  36) = (   0.7623837   1.3782062   1.2467795  )
        37           Cu  tau(  37) = (   0.0116806   2.0671470   1.2450539  )
        38           Cu  tau(  38) = (   0.2614328   1.8372499   1.2469863  )
        39           Cu  tau(  39) = (   0.5111922   2.0673891   1.2450768  )
        40           Cu  tau(  40) = (   0.7614783   1.8374249   1.2466590  )
        41           Cu  tau(  41) = (   0.0128307  -0.0113442   1.4927939  )
        42           Cu  tau(  42) = (   0.2627512   0.2210169   1.4909223  )
        43           Cu  tau(  43) = (   0.5122958  -0.0110577   1.4931574  )
        44           Cu  tau(  44) = (   0.7631788   0.2207633   1.4920526  )
        45           Cu  tau(  45) = (   0.0124689   0.4535341   1.4903636  )
        46           Cu  tau(  46) = (   0.2635812   0.6826929   1.4881866  )
        47           Cu  tau(  47) = (   0.5140215   0.4526925   1.4895506  )
        48           Cu  tau(  48) = (   0.7640315   0.6855347   1.4916045  )
        49           Cu  tau(  49) = (   0.0126120   0.9168690   1.4920031  )
        50           Cu  tau(  50) = (   0.2638222   1.1502126   1.4921598  )
        51           Cu  tau(  51) = (   0.5157245   0.9171270   1.4923349  )
        52           Cu  tau(  52) = (   0.7644218   1.1466844   1.4959148  )
        53           Cu  tau(  53) = (   0.0130865   1.3767647   1.4974788  )
        54           Cu  tau(  54) = (   0.2628014   1.6062265   1.4983366  )
        55           Cu  tau(  55) = (   0.5142526   1.3775647   1.4966766  )
        56           Cu  tau(  56) = (   0.7633736   1.6077250   1.4987595  )
        57           Cu  tau(  57) = (   0.0129415   1.8379035   1.4973478  )
        58           Cu  tau(  58) = (   0.2624971   2.0681420   1.4960341  )
        59           Cu  tau(  59) = (   0.5119507   1.8377261   1.4973559  )
        60           Cu  tau(  60) = (   0.7624206   2.0676490   1.4954378  )
[...]
       106           C   tau( 106) = (   0.3078839   0.3074059   2.3787516  )
       107           C   tau( 107) = (   0.4750024   0.0187577   2.3785528  )
       108           C   tau( 108) = (   0.4745346   0.4037861   2.3786007  )
       109           C   tau( 109) = (   0.6418476   0.1151567   2.3815264  )
       110           C   tau( 110) = (   0.6415739   0.3077287   2.3816382  )
       111           C   tau( 111) = (   0.8083298   0.0189081   2.3846765  )
       112           C   tau( 112) = (   0.8080686   0.4038635   2.3834607  )
       113           C   tau( 113) = (  -0.0258838   0.6927930   2.3877506  )
       114           C   tau( 114) = (  -0.0265292   0.8858155   2.4001940  )
       115           C   tau( 115) = (   0.1415205   0.5964469   2.3839271  )
       116           C   tau( 116) = (   0.1374721   0.9830981   2.3980172  )
       117           C   tau( 117) = (   0.3071235   0.6906498   2.3737503  )
       118           C   tau( 118) = (   0.3040917   0.8889408   2.3365195  )
       119           C   tau( 119) = (   0.4733060   0.5967538   2.3774762  )
       120           C   tau( 120) = (   0.4758280   0.9832966   2.3838909  )
       121           C_h tau( 121) = (   0.2828792   0.9073881   2.1186454  )
       122           C   tau( 122) = (   0.6408219   0.6930252   2.3798236  )
       123           C   tau( 123) = (   0.6397531   0.8863128   2.3897899  )
       124           C   tau( 124) = (   0.8076329   0.5970442   2.3829098  )
       125           C   tau( 125) = (   0.8065552   0.9816504   2.4042410  )
       126           C   tau( 126) = (  -0.0259380   1.2702329   2.4086560  )
       127           C   tau( 127) = (  -0.0253727   1.4625193   2.4030912  )
       128           C   tau( 128) = (   0.1399779   1.1734188   2.4072885  )
       129           C   tau( 129) = (   0.1414867   1.5585632   2.3987663  )
       130           C   tau( 130) = (   0.3074922   1.2698072   2.4008826  )
       131           C   tau( 131) = (   0.3079543   1.4616740   2.4001619  )
       132           C   tau( 132) = (   0.4746346   1.1732204   2.3987652  )
       133           C   tau( 133) = (   0.4746263   1.5583819   2.3985875  )
       134           C   tau( 134) = (   0.6408832   1.2700059   2.4047221  )
       135           C   tau( 135) = (   0.6410698   1.4623589   2.4027948  )
       136           C   tau( 136) = (   0.8073121   1.1738588   2.4065839  )
       137           C   tau( 137) = (   0.8078605   1.5585484   2.3993779  )
       138           C   tau( 138) = (  -0.0250717   1.8470642   2.3892338  )
       139           C   tau( 139) = (  -0.0250497   2.0395138   2.3882491  )
       140           C   tau( 140) = (   0.1418006   1.7508188   2.3921320  )
       141           C   tau( 141) = (   0.1414553   2.1356069   2.3853820  )
       142           C   tau( 142) = (   0.3083032   1.8470723   2.3891948  )
       143           C   tau( 143) = (   0.3083495   2.0394329   2.3832890  )
       144           C   tau( 144) = (   0.4747878   1.7506911   2.3925533  )
       145           C   tau( 145) = (   0.4750346   2.1356518   2.3814166  )
       146           C   tau( 146) = (   0.6415100   1.8470504   2.3898298  )
       147           C   tau( 147) = (   0.6415905   2.0395151   2.3848099  )
       148           C   tau( 148) = (   0.8080191   1.7508884   2.3921879  )
       149           C   tau( 149) = (   0.8083768   2.1358230   2.3856020  )

     number of k points=     6  gaussian smearing, width (Ry)=  0.1000
                       cart. coord. in units 2pi/alat
        k(    1) = (   0.0000000   0.0000000   0.0000000), wk =   0.2500000
        k(    2) = (   0.0000000  -0.2165064   0.0000000), wk =   0.2500000
        k(    3) = (   0.2500000   0.0000000   0.0000000), wk =   0.5000000
        k(    4) = (   0.2500000  -0.2165064   0.0000000), wk =   0.5000000
        k(    5) = (  -0.5000000   0.0000000   0.0000000), wk =   0.2500000
        k(    6) = (  -0.5000000  -0.2165064   0.0000000), wk =   0.2500000

     Largest allocated arrays     est. size (Mb)     dimensions
     Largest temporary arrays     est. size (Mb)     dimensions

     Initial potential from superposition of free atoms
     Check: negative starting charge=   -0.001820

     starting charge 1270.31751, renormalised to 1296.00000

     negative rho (up, down):  1.857E-03 0.000E+00
     Starting wfc are 1292 randomized atomic wfcs

     Self-consistent Calculation

     iteration #  1     ecut=    80.00 Ry     beta=0.70
     Davidson diagonalization with overlap
     c_bands:  1 eigenvalues not converged
     c_bands:  1 eigenvalues not converged
     c_bands:  2 eigenvalues not converged
     c_bands:  3 eigenvalues not converged
     ethr =  1.00E-04,  avg # of iterations = 38.2

     negative rho (up, down):  2.414E+01 0.000E+00

     total energy              =   -9978.80753370 Ry
     Harris-Foulkes estimate   =  -17306.77348001 Ry
     estimated scf accuracy    <  174857.23864462 Ry

     iteration #  2     ecut=    80.00 Ry     beta=0.70
     Davidson diagonalization with overlap
     ethr =  1.00E-02,  avg # of iterations = 10.3

[...]

     iteration # 40     ecut=    80.00 Ry     beta=0.70
     Davidson diagonalization with overlap
     c_bands:  1 eigenvalues not converged
     ethr =  1.24E-09,  avg # of iterations =  7.3

[...]

     total energy              =  -12718.50233830 Ry
     Harris-Foulkes estimate   =  -12718.50233827 Ry
     estimated scf accuracy    <       0.00000003 Ry

     iteration # 46     ecut=    80.00 Ry     beta=0.70
     Davidson diagonalization with overlap
     ethr =  2.12E-12,  avg # of iterations =  2.7

     negative rho (up, down):  2.093E-03 0.000E+00

     End of self-consistent calculation

          k = 0.0000 0.0000 0.0000 (256287 PWs)   bands (ev):

   -16.3338 -15.9787 -15.9440 -14.8870 -14.8348 -14.3977 -14.3541 -14.0827
   -13.9968 -13.9913 -13.9743 -13.1394 -13.0368 -12.9789 -12.9320 -12.9160
   -12.9054 -11.4650 -11.2381 -11.2213 -11.2179 -11.0614 -10.1945  -9.9261
    -9.3521  -9.3356  -9.3311  -9.1140  -8.4656  -8.4600  -8.4403  -8.3742
    -7.4769  -7.4562  -7.4100  -7.3967  -7.3856  -7.3833  -7.3616  -7.3457
    -6.0464  -5.8981  -5.8629  -5.8390  -5.8162  -5.7026  -5.6885  -5.6671
    -5.6625  -5.5175  -5.4924  -5.0251  -4.7887  -4.6193  -4.5539  -4.5281
    -4.4082  -4.3539  -4.2313  -4.1627  -4.0921  -4.0267  -3.9882  -3.6350
    -3.5672  -3.5105  -3.4273  -3.4155  -3.3938  -3.3805  -3.3187  -3.2751
    -3.2337  -3.1519  -3.1500  -3.1116  -3.1090  -3.0501  -3.0390  -3.0129
    -3.0043  -2.8809  -2.8457  -2.7977  -2.7652  -2.7264  -2.6588  -2.6071
    -2.5994  -2.5955  -2.5665  -2.5533  -2.4396  -2.3851  -2.3753  -2.3158
    -2.3036  -2.2291  -2.2247  -2.2163  -2.1950  -2.1944  -2.1841  -2.1827
    -2.1782  -2.1259  -2.0580  -2.0506  -2.0476  -2.0152  -2.0062  -1.9666
    -1.9631  -1.8747  -1.8653  -1.8541  -1.8078  -1.7732  -1.7717  -1.7648
    -1.7383  -1.7192  -1.7037  -1.6903  -1.6854  -1.6846  -1.6735  -1.6608
    -1.6286  -1.6099  -1.6007  -1.5856  -1.5831  -1.5649  -1.5549  -1.5501
    -1.5408  -1.5363  -1.5224  -1.4991  -1.4677  -1.4459  -1.3927  -1.3861
    -1.3692  -1.3350  -1.3312  -1.2968  -1.2942  -1.2856  -1.2778  -1.2505
    -1.2489  -1.2273  -1.2251  -1.2132  -1.2105  -1.1999  -1.1972  -1.1529
    -1.1188  -1.1137  -1.1057  -1.0911  -1.0842  -1.0719  -1.0673  -1.0660
    -1.0627  -1.0554  -1.0544  -1.0521  -1.0500  -1.0360  -1.0341  -1.0232
    -1.0056  -0.9912  -0.9782  -0.9756  -0.9582  -0.9543  -0.9443  -0.9277
    -0.9219  -0.9047  -0.8970  -0.8968  -0.8966  -0.8935  -0.8880  -0.8871
    -0.8860  -0.8842  -0.8831  -0.8814  -0.8784  -0.8764  -0.8739  -0.8708
    -0.8616  -0.8388  -0.8252  -0.7927  -0.7689  -0.7575  -0.7431  -0.7352
    -0.7234  -0.7227  -0.7194  -0.7153  -0.7002  -0.6772  -0.6737  -0.6664
    -0.6547  -0.6533  -0.6468  -0.6367  -0.6328  -0.6234  -0.6142  -0.5984
    -0.5978  -0.5965  -0.5940  -0.5864  -0.5798  -0.5789  -0.5560  -0.5353
    -0.5331  -0.5306  -0.4784  -0.4757  -0.4730  -0.4630  -0.4620  -0.4605
    -0.4542  -0.4483  -0.4437  -0.4420  -0.4395  -0.4390  -0.4356  -0.4338
    -0.4301  -0.4242  -0.4233  -0.4138  -0.4021  -0.3986  -0.3947  -0.3857
    -0.3831  -0.3424  -0.3338  -0.3325  -0.3281  -0.3170  -0.3132  -0.3066
    -0.3021  -0.2995  -0.2967  -0.2883  -0.2853  -0.2789  -0.2777  -0.2674
    -0.2637  -0.2611  -0.2589  -0.2566  -0.2518  -0.2469  -0.2458  -0.2409
    -0.2388  -0.2350  -0.2266  -0.2206  -0.2188  -0.2077  -0.1909  -0.1697
    -0.1674  -0.1619  -0.1557  -0.1342  -0.1250  -0.1137  -0.1123  -0.1028
    -0.1012  -0.0972  -0.0929  -0.0881  -0.0857  -0.0806  -0.0625  -0.0539
    -0.0480  -0.0450  -0.0353  -0.0335  -0.0276  -0.0230  -0.0214  -0.0183
    -0.0122  -0.0037   0.0027   0.0081   0.0090   0.0101   0.0130   0.0167
     0.0233   0.0246   0.0261   0.0305   0.0530   0.0533   0.0564   0.0636
     0.0704   0.0818   0.0943   0.0982   0.1054   0.1195   0.1252   0.1315
     0.1525   0.1580   0.1738   0.1813   0.1824   0.1870   0.2006   0.2025
     0.2066   0.2138   0.2159   0.2239   0.2244   0.2265   0.2308   0.2351
     0.2391   0.2615   0.2810   0.2915   0.3000   0.3028   0.3052   0.3121
     0.3156   0.3328   0.3416   0.3458   0.3473   0.3498   0.3633   0.3699
     0.3791   0.3826   0.3843   0.3919   0.3965   0.3986   0.4061   0.4292
     0.4320   0.4409   0.4472   0.4541   0.4590   0.4636   0.4663   0.4688
     0.4699   0.4758   0.4856   0.4913   0.4936   0.4972   0.4985   0.5026
     0.5053   0.5096   0.5120   0.5160   0.5196   0.5217   0.5267   0.5342
     0.5462   0.5552   0.5635   0.5653   0.5673   0.5776   0.5861   0.5935
     0.5945   0.6024   0.6088   0.6099   0.6111   0.6133   0.6176   0.6240
     0.6313   0.6383   0.6432   0.6461   0.6481   0.6506   0.6521   0.6633
     0.6681   0.6708   0.6779   0.6819   0.6849   0.6955   0.6968   0.7042
     0.7058   0.7096   0.7105   0.7106   0.7111   0.7185   0.7195   0.7223
     0.7389   0.7551   0.7649   0.7671   0.7790   0.7826   0.7843   0.7942
     0.7974   0.7983   0.8010   0.8090   0.8101   0.8154   0.8266   0.8352
     0.8403   0.8428   0.8493   0.8530   0.8547   0.8626   0.8644   0.8715
     0.8746   0.8803   0.8854   0.8952   0.8960   0.9004   0.9014   0.9048
     0.9147   0.9253   0.9257   0.9344   0.9426   0.9460   0.9506   0.9573
[...]
     3.9423   3.9647   3.9657   3.9672   3.9766   4.0124   4.0385   4.1162
     4.1648   4.2115   4.2348   4.3614   4.3877   4.7661   4.7960   5.0284
     5.0534   5.1390   5.1582   5.2916   5.3602   5.4108   5.5343   5.6573
     5.6858   5.7876   5.8715   5.8961   5.9240   6.1090   6.3131   6.3673
     6.3939   6.4251   6.4413   6.4588   6.4958   6.6403   6.6507   6.7184
     6.7389   6.8089   6.8140   6.8672   6.8875   6.9373   6.9551   7.0413
     7.0505   7.0835   7.1839   7.3139   7.3160   7.3667   7.5234   7.5546
     7.6230   7.6427   7.6677   7.7241   7.7403   7.8134   7.8537   8.1067
     8.1436   8.1589   8.2120   8.2384   8.2796   8.2985   8.3031   8.3149
     8.3505   8.3705   8.4030   8.4484   8.5282   8.5721   8.6107   8.6245
     8.6414   8.6573   8.6686   8.7105   8.7431   8.7996   8.8181   8.8190
     8.9268   8.9584   8.9711   9.0500   9.0722   9.0845   9.1063   9.1746
     9.2446   9.2939   9.3868   9.4430   9.5079   9.5389   9.5476   9.6123
     9.6502   9.7261   9.7322   9.8013   9.8726   9.9804  10.0090  10.0258
    10.1411  10.1995

[...]

          k = 0.2500-0.2165 0.0000 (256316 PWs)   bands (ev):

[...]

          k =-0.5000 0.0000 0.0000 (256496 PWs)   bands (ev):

[...]

          k =-0.5000-0.2165 0.0000 (256328 PWs)   bands (ev):

   -15.7758 -15.7572 -15.7512 -15.7015 -15.0669 -14.9994 -14.9860 -14.9826
   -13.6493 -13.5522 -13.5366 -13.5322 -12.1340 -11.9462 -11.9447 -11.8744
   -11.6466 -11.4909 -11.4739 -11.4669 -11.3723 -11.3061 -11.3011 -11.2747
   -10.0437  -9.6210  -9.5919  -9.5399  -9.3447  -8.6460  -8.6185  -8.6082
    -8.5260  -7.8883  -7.8790  -7.8317  -7.8032  -5.8594  -5.8010  -5.7875
    -5.7792  -5.2562  -5.2227  -5.2208  -5.2108  -5.1841  -5.1667  -5.1476
    -5.1419  -4.9738  -4.9663  -4.9423  -4.9303  -4.4929  -4.3691  -4.3436
    -4.3221  -4.2504  -4.2353  -4.2305  -4.2231  -4.0813  -4.0743  -4.0669
    -4.0564  -4.0018  -3.8662  -3.8602  -3.8258  -3.7322  -3.6106  -3.5944
    -3.5465  -3.5463  -3.5336  -3.5102  -3.5066  -3.4171  -3.3774  -3.3558
    -3.3395  -3.2134  -3.0248  -3.0038  -2.9982  -2.6776  -2.6633  -2.6235
    -2.6076  -2.5915  -2.5798  -2.5614  -2.5342  -2.4658  -2.4077  -2.3162
    -2.2004  -2.1949  -2.1510  -2.1316  -2.1184  -2.1021  -2.0877  -2.0814
    -2.0496  -1.9926  -1.9717  -1.9399  -1.9125  -1.8593  -1.8453  -1.8396
    -1.8258  -1.8183  -1.7882  -1.7177  -1.6936  -1.6277  -1.5963  -1.5772
    -1.5342  -1.5267  -1.5250  -1.5239  -1.4946  -1.4912  -1.4774  -1.4764
    -1.4747  -1.4659  -1.4655  -1.4597  -1.4411  -1.4365  -1.4298  -1.4236
    -1.4214  -1.4165  -1.4138  -1.4088  -1.4013  -1.3969  -1.3952  -1.3932
    -1.3768  -1.3675  -1.3654  -1.3431  -1.3409  -1.3372  -1.3129  -1.2680
    -1.2412  -1.2407  -1.2296  -1.2280  -1.2270  -1.2232  -1.2063  -1.2020
    -1.1956  -1.1886  -1.1796  -1.1767  -1.1575  -1.1562  -1.1545  -1.1515
    -1.1492  -1.1325  -1.1269  -1.1246  -1.1162  -1.1004  -1.0950  -1.0900
    -1.0859  -1.0818  -1.0796  -1.0756  -1.0746  -1.0724  -1.0684  -1.0654
    -1.0631  -1.0360  -1.0284  -0.9565  -0.9228  -0.9161  -0.9145  -0.9072
    -0.8912  -0.8898  -0.8882  -0.8866  -0.8829  -0.8577  -0.8407  -0.8392
    -0.8177  -0.8074  -0.8059  -0.8035  -0.8021  -0.7981  -0.7946  -0.7923
    -0.7850  -0.7410  -0.7394  -0.7353  -0.7339  -0.7319  -0.7311  -0.7274
    -0.7218  -0.7150  -0.7139  -0.7087  -0.6970  -0.6674  -0.6313  -0.6181
    -0.6142  -0.6129  -0.6062  -0.5946  -0.5909  -0.5684  -0.5610  -0.5537
    -0.5390  -0.5373  -0.5265  -0.5022  -0.4980  -0.4886  -0.4873  -0.4834
    -0.4833  -0.4668  -0.4662  -0.4595  -0.4385  -0.4356  -0.4346  -0.4322
    -0.4272  -0.4206  -0.4158  -0.3991  -0.3901  -0.3775  -0.3616  -0.3278
    -0.3237  -0.3120  -0.3099  -0.3031  -0.2991  -0.2912  -0.2893  -0.2884
    -0.2788  -0.2766  -0.2747  -0.2320  -0.2066  -0.2040  -0.2010  -0.1992
    -0.1968  -0.1921  -0.1901  -0.1869  -0.1837  -0.1818  -0.1788  -0.1586
    -0.1559  -0.1495  -0.1477  -0.1468  -0.1447  -0.1398  -0.1379  -0.1341
    -0.1337  -0.1250  -0.1240  -0.0885  -0.0767  -0.0744  -0.0583  -0.0550
    -0.0482  -0.0425  -0.0383  -0.0343  -0.0277  -0.0035   0.0055   0.0184
     0.0262   0.0329   0.0364   0.0385   0.0395   0.0417   0.0428   0.0471
     0.0490   0.0518   0.0537   0.0579   0.0583   0.0603   0.0631   0.0637
     0.0648   0.0675   0.0729   0.0749   0.0797   0.0806   0.0853   0.0899
     0.0921   0.0964   0.1002   0.1028   0.1079   0.1127   0.1214   0.1257
     0.1300   0.1365   0.1486   0.1663   0.1686   0.1739   0.1786   0.1936
     0.2009   0.2091   0.2095   0.2148   0.2654   0.2823   0.2864   0.2902
     0.2919   0.2957   0.2985   0.3009   0.3035   0.3069   0.3075   0.3138
     0.3175   0.3210   0.3233   0.3277   0.3281   0.3305   0.3367   0.3374
     0.3417   0.3435   0.3550   0.3568   0.3680   0.3743   0.3766   0.3808
     0.3864   0.3938   0.3955   0.4013   0.4088   0.4125   0.4143   0.4248
     0.4291   0.4304   0.4319   0.4368   0.4451   0.4542   0.4585   0.4637
     0.4650   0.4681   0.4756   0.4795   0.4843   0.4930   0.5011   0.5073
     0.5104   0.5145   0.5210   0.5238   0.5296   0.5314   0.5347   0.5359
     0.5371   0.5400   0.5424   0.5434   0.5465   0.5492   0.5526   0.5534
     0.5600   0.5660   0.5731   0.5777   0.5937   0.6032   0.6180   0.6245
     0.6323   0.6366   0.6412   0.6446   0.6465   0.6484   0.6534   0.6543
     0.6559   0.6625   0.6759   0.6787   0.6820   0.6840   0.6881   0.6887
     0.6908   0.6926   0.6940   0.6984   0.7122   0.7206   0.7336   0.7437
     0.7478   0.7521   0.7630   0.7727   0.7744   0.7769   0.7916   0.7971
     0.8017   0.8060   0.8101   0.8112   0.8134   0.8230   0.8309   0.8349
     0.8385   0.8548   0.8609   0.8828   0.8874   0.8878   0.9012   0.9101
     0.9175   0.9228   0.9304   0.9461   0.9586   0.9638   0.9675   0.9766
[...]
     4.2832   4.3105   4.3407   4.3778   4.5097   4.5189   4.5614   4.5746
     4.6081   4.6632   4.7125   4.8778   4.8946   4.9125   4.9782   5.0379
     5.0722   5.1115   5.1275   5.1354   5.1470   5.1978   5.2372   5.2687
     5.2911   5.3067   5.3123   5.3571   5.5112   5.5559   5.6246   5.6522
     5.7045   5.7131   5.7358   5.7444   5.7669   5.7752   5.8437   5.8973
     5.9065   5.9734   6.6666   6.7233   6.7593   6.7778   6.8287   6.9405
     7.0720   7.0823   7.0959   7.1078   7.1138   7.1510   7.1738   7.2301
     7.2627   7.2824   7.2997   7.3285   7.3561   7.3702   7.4014   7.5345
     7.5596   7.7308   7.7512   7.8973   7.9302   7.9990   8.0673   8.0871
     8.1220   8.1265   8.1857   8.2109   8.2146   8.4099   8.4167   8.4212
     8.4696   8.5096   8.5891   8.8227   8.8423   8.8560   8.8665   8.8869
     8.8941   8.8982   8.9059   8.9283   8.9743   9.0588   9.0897   9.1115
     9.1155   9.1264   9.1569   9.3270   9.4392   9.4427   9.4480   9.4669
     9.4923   9.5152   9.5258   9.5363   9.5709   9.6688   9.7289   9.7939
     9.9982  10.0021

     the Fermi energy is     3.2827 ev

!    total energy              =  -12718.50233830 Ry
     Harris-Foulkes estimate   =  -12718.50233830 Ry
     estimated scf accuracy    <          6.5E-09 Ry

     The total energy is the sum of the following terms:

     one-electron contribution = -109520.40526564 Ry
     hartree contribution      =   56123.08154604 Ry
     xc contribution           =   -4451.25410959 Ry
     ewald contribution        =   45136.43333178 Ry
     Dispersion Correction     =      -3.00636478 Ry
     smearing contrib. (-TS)   =      -3.35147611 Ry

     convergence has been achieved in  46 iterations

     Writing output data file gc.save

     General routines

     Parallel routines

   This run was terminated on:   0:50: 3  27Apr2017

   JOB DONE.