     Program PWSCF v.5.4.0 starts on 25Oct2017 at 19: 1:22

     Current dimensions of program PWSCF are:
     Max number of different atomic species (ntypx) = 10
     Max number of k-points (npk) =  40000
     Max angular momentum in pseudopotentials (lmaxx) =  3

     bravais-lattice index     =            0
     lattice parameter (alat)  =      13.9425  a.u.
     unit-cell volume          =   21209.0878 (a.u.)^3
     number of atoms/cell      =          136
     number of atomic types    =            4
     number of electrons       =      1226.00
     number of Kohn-Sham states=          736
     kinetic-energy cutoff     =      80.0000  Ry
     charge density cutoff     =     320.0000  Ry
     convergence threshold     =      1.0E-08
     mixing beta               =       0.7000
     number of iterations used =            8  local-TF  mixing
     Exchange-correlation      =  SLA  PW   PBE  PBE ( 1  4  3  4 0 0)

     celldm(1)=  13.942539  celldm(2)=   0.000000  celldm(3)=   0.000000
     celldm(4)=   0.000000  celldm(5)=   0.000000  celldm(6)=   0.000000

     crystal axes: (cart. coord. in units of alat)
               a(1) = (   1.000000   0.000000   0.000000 )
               a(2) = (   0.000000   2.309401   0.000000 )
               a(3) = (   0.000000   0.000000   3.388418 )

     reciprocal axes: (cart. coord. in units 2 pi/alat)
               b(1) = (  1.000000  0.000000  0.000000 )
               b(2) = (  0.000000  0.433013  0.000000 )
               b(3) = (  0.000000  0.000000  0.295123 )

     PseudoPot. # 1 for Cu read from file:
     /home/549/hxw549/Short/pseudopotentials/Cu.pbe-n-van_ak.UPF
     MD5 check sum: 601f7c30f7467666bec936e0661ce3e1
     Pseudo is Ultrasoft + core correction, Zval = 11.0
     Generated by new atomic code, or converted to UPF format
     Using radial grid of  867 points,  6 beta functions with:
                l(1) =   0
                l(2) =   0
                l(3) =   1
                l(4) =   1
                l(5) =   2
                l(6) =   2
     Q(r) pseudized with  8 coefficients,  rinner =    1.400   1.400   1.400
                                                       1.400   1.400

     PseudoPot. # 2 for C  read from file:
     /home/549/hxw549/Short/pseudopotentials/C.star1s-pbe-mt_gipaw.UPF
     MD5 check sum: ef0cb3dee31bd9e4ba2a832a2c716264
     Pseudo is Norm-conserving, Zval =  5.0
     Generated by new atomic code, or converted to UPF format
     Using radial grid of 1073 points,  1 beta functions with:
                l(1) =   0

     PseudoPot. # 3 for C  read from file:
     /home/549/hxw549/Short/pseudopotentials/C.pbe-mt_gipaw.UPF
     MD5 check sum: 5ac2f21f2c440b14befe521540822c15
     Pseudo is Norm-conserving, Zval =  4.0
     Generated by new atomic code, or converted to UPF format
     Using radial grid of 1073 points,  1 beta functions with:
                l(1) =   0

     PseudoPot. # 4 for H  read from file:
     /home/549/hxw549/Short/pseudopotentials/H.pbe-van_ak.UPF
     MD5 check sum: 077eb6d537518a38cb46c6de387227b7
     Pseudo is Ultrasoft, Zval =  1.0
     Generated by new atomic code, or converted to UPF format
     Using radial grid of  615 points,  1 beta functions with:
                l(1) =   0
     Q(r) pseudized with  8 coefficients,  rinner =    0.800

     atomic species   valence    mass     pseudopotential
        Cu            11.00    63.54600     Cu( 1.00)
        C_h            5.00    12.01070     C ( 1.00)
        C              4.00    12.01070     C ( 1.00)
        H              1.00     1.00783     H ( 1.00)

     No symmetry found

   Cartesian axes

     site n.     atom                  positions (alat units)
         1           Cu  tau(   1) = (   0.0000000  -0.0014914   0.9736517  )
         2           Cu  tau(   2) = (   0.2499983   0.2301866   0.9762471  )
         3           Cu  tau(   3) = (   0.5000000  -0.0014822   0.9736152  )
         4           Cu  tau(   4) = (   0.7500017   0.2301866   0.9762471  )
         5           Cu  tau(   5) = (   0.0000000   0.4616850   0.9792157  )
         6           Cu  tau(   6) = (   0.2500429   0.6929246   0.9796771  )
         7           Cu  tau(   7) = (   0.5000000   0.4616018   0.9790403  )
         8           Cu  tau(   8) = (   0.7499571   0.6929246   0.9796771  )
         9           Cu  tau(   9) = (   0.0000000   0.9245945   0.9771986  )
        10           Cu  tau(  10) = (   0.2500221   1.1562572   0.9743969  )
        11           Cu  tau(  11) = (   0.5000000   0.9245568   0.9773438  )
        12           Cu  tau(  12) = (   0.7499779   1.1562572   0.9743969  )
        13           Cu  tau(  13) = (   0.0000000   1.3874223   0.9733422  )
        14           Cu  tau(  14) = (   0.2500514   1.6175676   0.9738570  )
        15           Cu  tau(  15) = (   0.5000000   1.3874402   0.9735983  )
        16           Cu  tau(  16) = (   0.7499486   1.6175676   0.9738570  )
        17           Cu  tau(  17) = (   0.0000000   1.8469472   0.9736215  )
        18           Cu  tau(  18) = (   0.2500102   2.0768348   0.9730047  )
        19           Cu  tau(  19) = (   0.5000000   1.8470803   0.9736481  )
        20           Cu  tau(  20) = (   0.7499898   2.0768348   0.9730047  )
        21           Cu  tau(  21) = (   0.0000000   0.2262751   1.2285023  )
        22           Cu  tau(  22) = (   0.2500338  -0.0038588   1.2262953  )
        23           Cu  tau(  23) = (   0.5000000   0.2263773   1.2286321  )
        24           Cu  tau(  24) = (   0.7499662  -0.0038588   1.2262953  )
        25           Cu  tau(  25) = (   0.0000000   0.6942787   1.2306674  )
        26           Cu  tau(  26) = (   0.2501367   0.4593783   1.2305565  )
        27           Cu  tau(  27) = (   0.5000000   0.6938646   1.2309762  )
        28           Cu  tau(  28) = (   0.7498633   0.4593783   1.2305565  )
        29           Cu  tau(  29) = (   0.0000000   1.1588958   1.2268213  )
        30           Cu  tau(  30) = (   0.2500083   0.9276693   1.2291579  )
        31           Cu  tau(  31) = (   0.5000000   1.1589515   1.2268827  )
        32           Cu  tau(  32) = (   0.7499917   0.9276693   1.2291579  )
        33           Cu  tau(  33) = (   0.0000000   1.6179017   1.2260719  )
        34           Cu  tau(  34) = (   0.2500641   1.3886024   1.2259577  )
        35           Cu  tau(  35) = (   0.5000000   1.6182088   1.2264901  )
        36           Cu  tau(  36) = (   0.7499359   1.3886024   1.2259577  )
        37           Cu  tau(  37) = (   0.0000000   2.0768392   1.2255312  )
        38           Cu  tau(  38) = (   0.2501126   1.8475832   1.2262233  )
        39           Cu  tau(  39) = (   0.5000000   2.0767104   1.2258241  )
        40           Cu  tau(  40) = (   0.7498874   1.8475832   1.2262233  )
        41           Cu  tau(  41) = (   0.0000000  -0.0056462   1.4863679  )
        42           Cu  tau(  42) = (   0.2502645   0.2241549   1.4857743  )
        43           Cu  tau(  43) = (   0.5000000  -0.0058288   1.4868451  )
        44           Cu  tau(  44) = (   0.7497355   0.2241549   1.4857743  )
        45           Cu  tau(  45) = (   0.0000000   0.4581390   1.4841226  )
        46           Cu  tau(  46) = (   0.2500875   0.6942360   1.4847796  )
        47           Cu  tau(  47) = (   0.5000000   0.4573316   1.4858865  )
        48           Cu  tau(  48) = (   0.7499125   0.6942360   1.4847796  )
        49           Cu  tau(  49) = (   0.0000000   0.9295018   1.4853126  )
        50           Cu  tau(  50) = (   0.2499837   1.1612053   1.4853461  )
        51           Cu  tau(  51) = (   0.5000000   0.9295720   1.4847694  )
        52           Cu  tau(  52) = (   0.7500163   1.1612053   1.4853461  )
        53           Cu  tau(  53) = (   0.0000000   1.3896544   1.4846884  )
        54           Cu  tau(  54) = (   0.2500658   1.6188665   1.4839950  )
        55           Cu  tau(  55) = (   0.5000000   1.3895707   1.4848760  )
        56           Cu  tau(  56) = (   0.7499342   1.6188665   1.4839950  )
        57           Cu  tau(  57) = (   0.0000000   1.8481870   1.4831406  )
        58           Cu  tau(  58) = (   0.2501237   2.0764943   1.4852448  )
        59           Cu  tau(  59) = (   0.5000000   1.8487730   1.4847055  )
        60           Cu  tau(  60) = (   0.7498763   2.0764943   1.4852448  )
[...]
       112           C   tau( 112) = (   0.8334234   0.3831379   2.4292388  )
       113           C   tau( 113) = (   0.0000000   0.6728306   2.4353261  )
       114           C   tau( 114) = (   0.0000000   0.8660104   2.4313164  )
       115           C   tau( 115) = (   0.1666761   0.5762223   2.4333797  )
       116           C   tau( 116) = (   0.1665471   0.9623677   2.4251897  )
       117           C   tau( 117) = (   0.3332377   0.6732182   2.4310854  )
       118           C   tau( 118) = (   0.3331508   0.8663764   2.4293980  )
       119           C   tau( 119) = (   0.5000000   0.5765454   2.4287883  )
       120           C   tau( 120) = (   0.5000000   0.9624314   2.4234238  )
       121           C   tau( 121) = (   0.6667623   0.6732182   2.4310854  )
       122           C   tau( 122) = (   0.6668492   0.8663764   2.4293980  )
       123           C   tau( 123) = (   0.8333239   0.5762223   2.4333797  )
       124           C   tau( 124) = (   0.8334529   0.9623677   2.4251897  )
       125           C   tau( 125) = (   0.0000000   1.2495009   2.4079216  )
       126           C   tau( 126) = (   0.1664296   1.1561314   2.4114772  )
       127           C_h tau( 127) = (   0.3333295   1.2487129   2.4019759  )
       128           C   tau( 128) = (   0.5000000   1.1558804   2.4089410  )
       129           C   tau( 129) = (   0.6666705   1.2487129   2.4019759  )
       130           C   tau( 130) = (   0.8335704   1.1561314   2.4114772  )
       131           H   tau( 131) = (   0.1663661  -0.1465893   2.4012107  )
       132           H   tau( 132) = (   0.5000000  -0.1456555   2.3786234  )
       133           H   tau( 133) = (   0.8336339  -0.1465893   2.4012107  )
       134           H   tau( 134) = (   0.0000000   1.3968478   2.4019960  )
       135           H   tau( 135) = (   0.3331143   1.3957368   2.3940740  )
       136           H   tau( 136) = (   0.6668857   1.3957368   2.3940740  )

     number of k points=     6  gaussian smearing, width (Ry)=  0.1000
                       cart. coord. in units 2pi/alat
        k(    1) = (   0.0000000   0.0000000   0.0000000), wk =   0.2500000
        k(    2) = (   0.0000000  -0.2165064   0.0000000), wk =   0.2500000
        k(    3) = (   0.2500000   0.0000000   0.0000000), wk =   0.5000000
        k(    4) = (   0.2500000  -0.2165064   0.0000000), wk =   0.5000000
        k(    5) = (  -0.5000000   0.0000000   0.0000000), wk =   0.2500000
        k(    6) = (  -0.5000000  -0.2165064   0.0000000), wk =   0.2500000

     Largest allocated arrays     est. size (Mb)     dimensions
     Largest temporary arrays     est. size (Mb)     dimensions

     Initial potential from superposition of free atoms
     Check: negative starting charge=   -0.001990

     starting charge 1209.81748, renormalised to 1226.00000

     negative rho (up, down):  2.016E-03 0.000E+00
     Starting wfc are 1146 randomized atomic wfcs

     Self-consistent Calculation

     iteration #  1     ecut=    80.00 Ry     beta=0.70
     Davidson diagonalization with overlap
     ethr =  1.00E-04,  avg # of iterations = 19.5

     negative rho (up, down):  2.859E+01 0.000E+00

     total energy              =   -8264.08022915 Ry
     Harris-Foulkes estimate   =  -15156.72424526 Ry
     estimated scf accuracy    <  155996.54572601 Ry

[...]

     iteration # 36     ecut=    80.00 Ry     beta=0.70
     Davidson diagonalization with overlap
     c_bands:  1 eigenvalues not converged
     ethr =  6.13E-08,  avg # of iterations =  6.8

[...]

     iteration # 38     ecut=    80.00 Ry     beta=0.70
     Davidson diagonalization with overlap
     c_bands:  1 eigenvalues not converged
     ethr =  2.51E-09,  avg # of iterations = 10.2

[...]

     total energy              =  -12505.91836495 Ry
     Harris-Foulkes estimate   =  -12505.91836497 Ry
     estimated scf accuracy    <       0.00000003 Ry

     iteration # 46     ecut=    80.00 Ry     beta=0.70
     Davidson diagonalization with overlap
     ethr =  2.09E-12,  avg # of iterations =  2.0

     negative rho (up, down):  2.194E-03 0.000E+00

     End of self-consistent calculation

          k = 0.0000 0.0000 0.0000 (256287 PWs)   bands (ev):

   -16.8550 -16.2679 -15.4551 -14.6928 -14.6468 -14.3299 -14.1246 -13.8874
   -13.3245 -13.2290 -12.4887 -12.0639 -12.0195 -10.7850 -10.5920  -9.8753
    -9.4459  -9.3999  -8.8979  -8.7163  -8.2525  -8.0280  -7.8248  -7.5088
    -7.4597  -6.8309  -6.7695  -6.5650  -6.4056  -6.1377  -5.8755  -5.8697
    -5.8024  -5.6001  -5.5475  -5.4022  -4.9891  -4.9659  -4.8987  -4.7784
    -4.4847  -4.3825  -4.3749  -4.3320  -3.9928  -3.8004  -3.7951  -3.7898
    -3.7841  -3.5831  -3.4904  -3.4863  -3.4702  -3.4041  -3.4024  -3.3999
    -3.3924  -3.3867  -3.3749  -3.3030  -3.3010  -3.2415  -3.1946  -2.9903
    -2.9854  -2.9053  -2.8934  -2.7647  -2.7613  -2.7595  -2.7520  -2.6043
    -2.5954  -2.5876  -2.5625  -2.5618  -2.5573  -2.5568  -2.5071  -2.4937
    -2.4913  -2.4623  -2.4608  -2.4591  -2.4573  -2.3257  -2.3200  -2.2416
    -2.2123  -2.1940  -2.1901  -2.1870  -2.1852  -2.1759  -2.1473  -2.1291
    -2.1156  -2.1052  -2.0924  -2.0832  -2.0734  -2.0543  -2.0531  -2.0416
    -2.0378  -2.0183  -2.0029  -1.9828  -1.9519  -1.9497  -1.9421  -1.9405
    -1.9154  -1.8944  -1.8257  -1.8095  -1.8075  -1.8008  -1.7892  -1.7702
    -1.7515  -1.7458  -1.7338  -1.6843  -1.6602  -1.6591  -1.6482  -1.6384
    -1.6170  -1.6079  -1.5717  -1.5455  -1.5429  -1.5379  -1.5307  -1.5299
    -1.5216  -1.5197  -1.5125  -1.5059  -1.4955  -1.4942  -1.4875  -1.4854
    -1.4761  -1.4689  -1.4667  -1.4638  -1.4623  -1.4354  -1.4281  -1.4196
    -1.4161  -1.4131  -1.4112  -1.4021  -1.3831  -1.3613  -1.3593  -1.3478
    -1.3461  -1.3387  -1.3365  -1.3306  -1.3288  -1.3031  -1.3013  -1.2987
    -1.2983  -1.2905  -1.2890  -1.2870  -1.2856  -1.2565  -1.1823  -1.1699
    -1.1691  -1.1663  -1.1522  -1.1231  -1.1206  -1.1202  -1.1180  -1.1132
    -1.1102  -1.1087  -1.1048  -1.0969  -1.0962  -1.0885  -1.0631  -1.0568
    -1.0518  -1.0484  -1.0385  -1.0360  -1.0246  -1.0241  -1.0154  -0.9809
    -0.9789  -0.9365  -0.9331  -0.9329  -0.9322  -0.9279  -0.9232  -0.9204
    -0.9156  -0.9062  -0.9044  -0.9020  -0.8922  -0.8913  -0.8883  -0.8875
    -0.8742  -0.8732  -0.8722  -0.8584  -0.8569  -0.8176  -0.8151  -0.8046
    -0.7906  -0.7863  -0.7855  -0.7846  -0.7838  -0.7814  -0.7812  -0.7739
    -0.7724  -0.7717  -0.7690  -0.7641  -0.7622  -0.7543  -0.7504  -0.7489
    -0.7446  -0.7432  -0.7414  -0.7324  -0.7242  -0.7237  -0.7042  -0.7037
    -0.6966  -0.6911  -0.6889  -0.6854  -0.6814  -0.6791  -0.6669  -0.6549
    -0.6373  -0.6367  -0.6285  -0.6261  -0.6246  -0.6218  -0.5981  -0.5869
    -0.5862  -0.5810  -0.5664  -0.5652  -0.5558  -0.5539  -0.5515  -0.5514
    -0.5510  -0.5358  -0.5297  -0.5191  -0.5159  -0.5139  -0.5069  -0.5026
    -0.4982  -0.4789  -0.4654  -0.4652  -0.4574  -0.4566  -0.4440  -0.4398
    -0.4358  -0.4342  -0.4316  -0.4308  -0.4270  -0.4087  -0.4065  -0.3972
    -0.3934  -0.3891  -0.3879  -0.3790  -0.3768  -0.3670  -0.3648  -0.3630
    -0.3553  -0.3520  -0.3320  -0.2813  -0.2806  -0.2797  -0.2713  -0.2661
    -0.2638  -0.2618  -0.2531  -0.2491  -0.2479  -0.2360  -0.2352  -0.2149
    -0.2110  -0.2092  -0.2060  -0.1882  -0.1727  -0.1705  -0.1665  -0.1655
    -0.1607  -0.1568  -0.1357  -0.1349  -0.1249  -0.1147  -0.1044  -0.1015
    -0.1001  -0.0961  -0.0846  -0.0702  -0.0666  -0.0634  -0.0587  -0.0494
    -0.0471  -0.0311  -0.0270  -0.0264  -0.0198  -0.0188  -0.0121  -0.0054
    -0.0051  -0.0032  -0.0019   0.0016   0.0029   0.0054   0.0109   0.0203
     0.0212   0.0229   0.0248   0.0255   0.0267   0.0305   0.0369   0.0443
     0.0499   0.0512   0.0564   0.0731   0.0922   0.1034   0.1051   0.1067
     0.1107   0.1221   0.1241   0.1246   0.1282   0.1287   0.1293   0.1329
     0.1332   0.1343   0.1377   0.1397   0.1414   0.1439   0.1456   0.1475
     0.1685   0.1695   0.1716   0.1776   0.1790   0.1803   0.1846   0.1895
     0.1895   0.1935   0.2002   0.2070   0.2211   0.2305   0.2436   0.2529
     0.2606   0.2631   0.2744   0.2757   0.2790   0.2863   0.2906   0.3019
     0.3028   0.3072   0.3087   0.3143   0.3213   0.3228   0.3240   0.3369
     0.3411   0.3426   0.3448   0.3595   0.3634   0.3827   0.3870   0.3893
     0.3918   0.3933   0.3944   0.4065   0.4118   0.4131   0.4134   0.4385
     0.4411   0.4429   0.4441   0.4464   0.4495   0.4505   0.4602   0.4602
     0.4616   0.4668   0.4692   0.4703   0.4762   0.4789   0.4841   0.4888
     0.4925   0.4929   0.4951   0.4981   0.4995   0.5079   0.5095   0.5118
     0.5269   0.5290   0.5325   0.5359   0.5466   0.5496   0.5561   0.5573
     0.5619   0.5638   0.5652   0.5657   0.5693   0.5700   0.5707   0.5736
[...]
     2.7957   2.8305   3.0537   3.1336   3.1692   3.1744   3.2237   3.2659
     3.2691   3.2745   3.2899   3.3262   3.3382   3.3887   3.4686   3.4861
     3.4917   3.4952   3.4983   3.5101   3.5201   3.5655   3.5717   3.5822
     3.6773   4.3241   4.4625   4.4887   4.5543   4.6664   4.7290   4.7823
     4.8322   4.9508   5.0220   5.0739   5.1864   5.4528   5.4571   5.4824
     5.5121   5.7469   5.7567   5.7734   5.7793   5.8463   5.9346   6.0255
     6.0551   6.0612   6.0991   6.1131   6.2059   6.2539   6.3010   6.3166
     6.3313   6.3752   6.4020   6.4654   6.6057   6.7489   6.8012   6.8115
     6.9313   7.0980   7.1331   7.1464   7.1539   7.2403   7.2869   7.3285
     7.3419   7.3858   7.4638   7.4901   7.5394   7.6154   7.6531   7.7224
     7.7269   7.7369   7.7742   7.8277   7.8360   7.8644   7.8670   7.8786
     7.9111   7.9421   7.9961   8.0863   8.0924   8.0976   8.1200   8.1787
     8.2217   8.2569   8.2844   8.3129   8.3595   8.3741   8.4313   8.4662
     8.6046   8.6233   8.6409   8.7377   8.7545   8.7562   8.8755   8.9598
     9.0237   9.0369   9.1431   9.1479   9.1742   9.2330   9.2922   9.4519

[...]

          k = 0.2500-0.2165 0.0000 (256316 PWs)   bands (ev):

[...]

          k =-0.5000 0.0000 0.0000 (256496 PWs)   bands (ev):

[...]

          k =-0.5000-0.2165 0.0000 (256328 PWs)   bands (ev):

   -16.6662 -16.0375 -15.8225 -15.4800 -14.9612 -14.5494 -13.7116 -13.2963
   -12.4323 -12.3512 -12.1336 -11.9583 -11.8156 -11.7743 -11.1515 -10.6501
    -9.8192  -9.7795  -9.4816  -9.2565  -8.5014  -8.3933  -7.9872  -7.4908
    -6.4351  -6.2429  -5.6370  -5.6279  -5.5835  -5.5710  -5.5672  -5.5650
    -5.5605  -5.2888  -5.1266  -5.0191  -4.7052  -4.6850  -4.6365  -4.6173
    -4.6109  -4.6076  -4.5819  -4.5810  -4.5802  -4.5763  -4.3910  -4.3248
    -4.2387  -4.1339  -4.0052  -3.9220  -3.8221  -3.7934  -3.7712  -3.7287
    -3.7233  -3.6744  -3.5488  -3.5327  -3.1332  -3.1012  -3.0756  -3.0658
    -3.0617  -3.0424  -2.9820  -2.9775  -2.9768  -2.9762  -2.9338  -2.6894
    -2.6061  -2.5908  -2.5499  -2.5385  -2.5333  -2.5304  -2.5296  -2.5269
    -2.5008  -2.4186  -2.2269  -2.2235  -2.2206  -2.2149  -2.0714  -2.0678
    -2.0652  -2.0560  -2.0524  -2.0161  -2.0041  -1.9610  -1.9532  -1.9221
    -1.9214  -1.9207  -1.9190  -1.9178  -1.9167  -1.8983  -1.8963  -1.8863
    -1.8328  -1.8315  -1.8261  -1.8224  -1.8153  -1.8149  -1.8118  -1.8064
    -1.7995  -1.7975  -1.7958  -1.7925  -1.7916  -1.7895  -1.7690  -1.7675
    -1.7644  -1.7457  -1.7444  -1.7392  -1.7010  -1.6611  -1.6596  -1.6495
    -1.6431  -1.6425  -1.6347  -1.6341  -1.6324  -1.6296  -1.6252  -1.6198
    -1.6106  -1.6090  -1.6086  -1.6068  -1.5842  -1.5833  -1.5828  -1.5819
    -1.5322  -1.5298  -1.5263  -1.5111  -1.5100  -1.5074  -1.5056  -1.5009
    -1.4995  -1.4885  -1.4852  -1.4845  -1.4811  -1.4494  -1.4146  -1.3816
    -1.3796  -1.3751  -1.3692  -1.3274  -1.2990  -1.2973  -1.2959  -1.2954
    -1.2742  -1.2700  -1.2629  -1.2622  -1.2573  -1.2550  -1.2513  -1.2498
    -1.2483  -1.2481  -1.2479  -1.1910  -1.1807  -1.1777  -1.1748  -1.1713
    -1.1690  -1.1640  -1.1571  -1.1565  -1.1527  -1.1407  -1.1386  -1.1322
    -1.0641  -1.0630  -1.0595  -1.0585  -1.0473  -1.0451  -1.0406  -1.0361
    -0.9982  -0.9980  -0.9938  -0.9912  -0.9600  -0.9578  -0.9570  -0.9567
    -0.9433  -0.9423  -0.9395  -0.9385  -0.8906  -0.8890  -0.8872  -0.8870
    -0.8805  -0.8786  -0.8782  -0.8729  -0.8195  -0.8190  -0.8161  -0.8112
    -0.7596  -0.7591  -0.7550  -0.7542  -0.7476  -0.7472  -0.7411  -0.7408
    -0.7398  -0.7378  -0.7358  -0.7334  -0.6828  -0.6809  -0.6785  -0.6767
    -0.6743  -0.6735  -0.6711  -0.6683  -0.6678  -0.6669  -0.6663  -0.6596
    -0.6569  -0.6555  -0.6541  -0.6532  -0.6359  -0.6352  -0.6328  -0.6309
    -0.5864  -0.5856  -0.5822  -0.5813  -0.5436  -0.5427  -0.5392  -0.5365
    -0.5102  -0.5072  -0.5038  -0.5010  -0.4994  -0.4981  -0.4843  -0.4827
    -0.4811  -0.4785  -0.4748  -0.4717  -0.4606  -0.4592  -0.4582  -0.4578
    -0.4504  -0.4497  -0.4486  -0.4482  -0.4413  -0.4324  -0.4262  -0.4248
    -0.4184  -0.4178  -0.4174  -0.4167  -0.3964  -0.3959  -0.3947  -0.3945
    -0.3819  -0.3775  -0.3754  -0.3750  -0.3680  -0.3676  -0.3612  -0.3604
    -0.3152  -0.3021  -0.2994  -0.2964  -0.2944  -0.2927  -0.2774  -0.2748
    -0.2444  -0.2412  -0.2395  -0.2378  -0.2014  -0.1817  -0.1810  -0.1775
    -0.1738  -0.1694  -0.1631  -0.1580  -0.1528  -0.1501  -0.1472  -0.1445
    -0.1428  -0.1364  -0.1324  -0.1313  -0.1305  -0.1193  -0.1174  -0.1140
    -0.1122  -0.1007  -0.0940  -0.0891  -0.0877  -0.0858  -0.0853  -0.0848
    -0.0827  -0.0742  -0.0686  -0.0670  -0.0658  -0.0638  -0.0608  -0.0487
    -0.0438  -0.0241  -0.0180  -0.0175  -0.0136  -0.0058  -0.0037   0.0019
     0.0157   0.0183   0.0215   0.0308   0.0361   0.0382   0.0397   0.0404
     0.0415   0.0445   0.0461   0.0489   0.0497   0.0542   0.0583   0.0614
     0.0628   0.0647   0.0715   0.0735   0.0743   0.0750   0.0753   0.0833
     0.0925   0.0936   0.1089   0.1162   0.1237   0.1243   0.1270   0.1319
     0.1378   0.1471   0.1572   0.1622   0.1663   0.1716   0.1720   0.1727
     0.1732   0.1827   0.1855   0.1873   0.1900   0.1908   0.2001   0.2042
     0.2075   0.2081   0.2088   0.2137   0.2356   0.2434   0.2457   0.2512
     0.2625   0.2641   0.2682   0.2731   0.2736   0.3052   0.3151   0.3163
     0.3228   0.3258   0.3273   0.3298   0.3349   0.3363   0.3945   0.3963
     0.3970   0.3989   0.4076   0.4102   0.4107   0.4113   0.4206   0.4216
     0.4311   0.4337   0.4436   0.4533   0.4596   0.4637   0.4680   0.4701
     0.4715   0.4740   0.4790   0.4798   0.4820   0.4828   0.4849   0.4872
     0.4903   0.4913   0.4920   0.4970   0.5005   0.5026   0.5076   0.5134
     0.5149   0.5207   0.5305   0.5327   0.5332   0.5368   0.5395   0.5408
     0.5437   0.5453   0.5550   0.5557   0.5624   0.5652   0.5667   0.5679
[...]
     3.0387   3.0495   3.0877   3.1061   3.4249   3.4260   3.4295   3.4314
     3.4491   3.4705   3.6194   3.6383   3.6618   3.6631   3.6699   3.6720
     3.8634   3.8776   3.8982   3.9026   4.1150   4.1231   4.1355   4.1499
     4.4369   4.4587   4.4898   4.5075   4.5362   4.5503   4.5601   4.5751
     4.5866   4.5913   4.5986   4.6136   4.6179   4.6539   4.7518   4.8509
     4.9224   5.0179   5.0984   5.1130   5.1950   5.2066   5.2146   5.2289
     5.2552   5.2850   6.0317   6.1835   6.2286   6.2727   6.2938   6.3599
     6.3654   6.3763   6.3895   6.4140   6.4215   6.4525   6.4821   6.4877
     6.5119   6.5181   6.5735   6.6791   6.7477   6.7716   6.7759   6.7797
     6.7874   6.8251   6.8455   6.8526   7.0809   7.2356   7.2510   7.2977
     7.3239   7.3497   7.5985   7.6016   7.7107   7.7114   7.8211   7.8941
     7.9674   8.1208   8.1245   8.1312   8.1488   8.2416   8.2814   8.2853
     8.2899   8.2915   8.3131   8.3239   8.3437   8.4365   8.4647   8.4872
     8.5116   8.5191   8.5282   8.5357   8.5457   8.6422   8.6544   8.6685
     8.7011   8.7382   8.7663   8.8318   8.8587   8.9008   9.1485   9.2177

     the Fermi energy is     2.7457 ev

!    total energy              =  -12505.91836491 Ry
     Harris-Foulkes estimate   =  -12505.91836496 Ry
     estimated scf accuracy    <          8.3E-09 Ry

     The total energy is the sum of the following terms:

     one-electron contribution = -104214.05389956 Ry
     hartree contribution      =   53422.30747180 Ry
     xc contribution           =   -4387.13377597 Ry
     ewald contribution        =   42676.31686618 Ry
     smearing contrib. (-TS)   =      -3.35502736 Ry

     convergence has been achieved in  46 iterations

     Writing output data file gc.save

     General routines

     Parallel routines

   This run was terminated on:   1: 8: 2  26Oct2017

   JOB DONE.