     Program PWSCF v.5.4.0 starts on 30Dec2016 at 10:41:22

     Current dimensions of program PWSCF are:
     Max number of different atomic species (ntypx) = 10
     Max number of k-points (npk) =  40000
     Max angular momentum in pseudopotentials (lmaxx) =  3
     WARNING: atomic wfc #  2 for atom type 4 has zero norm
     WARNING: atomic wfc #  4 for atom type 4 has zero norm
     WARNING: atomic wfc #  5 for atom type 4 has zero norm

     Parameters for Dispersion Correction:
       atom      VdW radius       C_6

        Cu         2.952        374.666
        C_h        2.744         60.710
        C          2.744         60.710
        O          2.536         24.284

     bravais-lattice index     =            0
     lattice parameter (alat)  =      13.9425  a.u.
     unit-cell volume          =   21209.0878 (a.u.)^3
     number of atoms/cell      =          149
     number of atomic types    =            4
     number of electrons       =      1298.00
     number of Kohn-Sham states=          779
     kinetic-energy cutoff     =      80.0000  Ry
     charge density cutoff     =     320.0000  Ry
     convergence threshold     =      1.0E-08
     mixing beta               =       0.7000
     number of iterations used =            8  local-TF  mixing
     Exchange-correlation      =  SLA  PW   PBX  PBC ( 1  4  3  4 0 0)

     celldm(1)=  13.942539  celldm(2)=   0.000000  celldm(3)=   0.000000
     celldm(4)=   0.000000  celldm(5)=   0.000000  celldm(6)=   0.000000

     crystal axes: (cart. coord. in units of alat)
               a(1) = (   1.000000   0.000000   0.000000 )
               a(2) = (   0.000000   2.309401   0.000000 )
               a(3) = (   0.000000   0.000000   3.388418 )

     reciprocal axes: (cart. coord. in units 2 pi/alat)
               b(1) = (  1.000000  0.000000  0.000000 )
               b(2) = (  0.000000  0.433013  0.000000 )
               b(3) = (  0.000000  0.000000  0.295123 )

     PseudoPot. # 1 for Cu read from file:
     /home/549/hxw549/Short/pseudopotentials/Cu.pbe-n-van_ak.UPF
     MD5 check sum: 601f7c30f7467666bec936e0661ce3e1
     Pseudo is Ultrasoft + core correction, Zval = 11.0
     Generated by new atomic code, or converted to UPF format
     Using radial grid of  867 points,  6 beta functions with:
                l(1) =   0
                l(2) =   0
                l(3) =   1
                l(4) =   1
                l(5) =   2
                l(6) =   2
     Q(r) pseudized with  8 coefficients,  rinner =    1.400   1.400   1.400
                                                       1.400   1.400

     PseudoPot. # 2 for C  read from file:
     /home/549/hxw549/Short/pseudopotentials/C.star1s-pbe-mt_gipaw.UPF
     MD5 check sum: ef0cb3dee31bd9e4ba2a832a2c716264
     Pseudo is Norm-conserving, Zval =  5.0
     Generated by new atomic code, or converted to UPF format
     Using radial grid of 1073 points,  1 beta functions with:
                l(1) =   0

     PseudoPot. # 3 for C  read from file:
     /home/549/hxw549/Short/pseudopotentials/C.pbe-mt_gipaw.UPF
     MD5 check sum: 5ac2f21f2c440b14befe521540822c15
     Pseudo is Norm-conserving, Zval =  4.0
     Generated by new atomic code, or converted to UPF format
     Using radial grid of 1073 points,  1 beta functions with:
                l(1) =   0

     PseudoPot. # 4 for O  read from file:
     /home/549/hxw549/Short/pseudopotentials/O.pbe-van_gipaw.UPF
     MD5 check sum: 5ce2a047509d4f331db576c963e74b29
     Pseudo is Ultrasoft, Zval =  6.0
     Generated by new atomic code, or converted to UPF format
     Using radial grid of 1095 points,  4 beta functions with:
                l(1) =   0
                l(2) =   0
                l(3) =   1
                l(4) =   1
     Q(r) pseudized with 0 coefficients

     atomic species   valence    mass     pseudopotential
        Cu            11.00    63.54600     Cu( 1.00)
        C_h            5.00    12.01070     C ( 1.00)
        C              4.00    12.01070     C ( 1.00)
        O              6.00    15.99940     O ( 1.00)

     No symmetry found

   Cartesian axes

     site n.     atom                  positions (alat units)
         1           Cu  tau(   1) = (  -0.0000267   0.0003068   0.9983929  )
         2           Cu  tau(   2) = (   0.2500036   0.2312703   0.9983145  )
         3           Cu  tau(   3) = (   0.4999803   0.0002594   0.9983489  )
         4           Cu  tau(   4) = (   0.7499895   0.2312918   0.9983342  )
         5           Cu  tau(   5) = (   0.0000225   0.4620329   0.9981170  )
         6           Cu  tau(   6) = (   0.2500219   0.6928138   0.9977793  )
         7           Cu  tau(   7) = (   0.5000145   0.4620708   0.9980771  )
         8           Cu  tau(   8) = (   0.7500464   0.6928005   0.9977795  )
         9           Cu  tau(   9) = (   0.0000444   0.9236560   0.9976799  )
        10           Cu  tau(  10) = (   0.2500468   1.1544894   0.9979087  )
        11           Cu  tau(  11) = (   0.5000294   0.9236428   0.9976663  )
        12           Cu  tau(  12) = (   0.7500113   1.1544661   0.9979233  )
        13           Cu  tau(  13) = (  -0.0000030   1.3852325   0.9982653  )
        14           Cu  tau(  14) = (   0.2500078   1.6159458   0.9985773  )
        15           Cu  tau(  15) = (   0.5000250   1.3851939   0.9983781  )
        16           Cu  tau(  16) = (   0.7499695   1.6160612   0.9985012  )
        17           Cu  tau(  17) = (   0.0000343   1.8470384   0.9985232  )
        18           Cu  tau(  18) = (   0.2499384   2.0784489   0.9984548  )
        19           Cu  tau(  19) = (   0.4999091   1.8470915   0.9984673  )
        20           Cu  tau(  20) = (   0.7499959   2.0783416   0.9983130  )
        21           Cu  tau(  21) = (   0.0000812   0.2314093   1.2467788  )
        22           Cu  tau(  22) = (   0.2500218   0.0003249   1.2465774  )
        23           Cu  tau(  23) = (   0.5000485   0.2314075   1.2466680  )
        24           Cu  tau(  24) = (   0.7500266   0.0001653   1.2463696  )
        25           Cu  tau(  25) = (   0.0001623   0.6931214   1.2464311  )
        26           Cu  tau(  26) = (   0.2501033   0.4623525   1.2466471  )
        27           Cu  tau(  27) = (   0.5001337   0.6931028   1.2464251  )
        28           Cu  tau(  28) = (   0.7501184   0.4623956   1.2466785  )
        29           Cu  tau(  29) = (   0.0001568   1.1541245   1.2464838  )
        30           Cu  tau(  30) = (   0.2501615   0.9236200   1.2463252  )
        31           Cu  tau(  31) = (   0.5001177   1.1540045   1.2466424  )
        32           Cu  tau(  32) = (   0.7501390   0.9235859   1.2463014  )
        33           Cu  tau(  33) = (   0.0000729   1.6157545   1.2468989  )
        34           Cu  tau(  34) = (   0.2501093   1.3847381   1.2469554  )
        35           Cu  tau(  35) = (   0.5000326   1.6158869   1.2468953  )
        36           Cu  tau(  36) = (   0.7500890   1.3848287   1.2468265  )
        37           Cu  tau(  37) = (   0.0000323   2.0783589   1.2463249  )
        38           Cu  tau(  38) = (   0.2500077   1.8470268   1.2466081  )
        39           Cu  tau(  39) = (   0.4999755   2.0783445   1.2462814  )
        40           Cu  tau(  40) = (   0.7500223   1.8470837   1.2465241  )
        41           Cu  tau(  41) = (   0.0002124  -0.0001420   1.4956913  )
        42           Cu  tau(  42) = (   0.2502432   0.2315683   1.4963144  )
        43           Cu  tau(  43) = (   0.5000580  -0.0001022   1.4955702  )
        44           Cu  tau(  44) = (   0.7501834   0.2311697   1.4957919  )
        45           Cu  tau(  45) = (   0.0003849   0.4627079   1.4963383  )
        46           Cu  tau(  46) = (   0.2503961   0.6934059   1.4964363  )
        47           Cu  tau(  47) = (   0.5002404   0.4626228   1.4962459  )
        48           Cu  tau(  48) = (   0.7504437   0.6934576   1.4964425  )
        49           Cu  tau(  49) = (   0.0004625   0.9237210   1.4966639  )
        50           Cu  tau(  50) = (   0.2503244   1.1534720   1.4969567  )
        51           Cu  tau(  51) = (   0.5003991   0.9233981   1.4968565  )
        52           Cu  tau(  52) = (   0.7504645   1.1536830   1.4965640  )
        53           Cu  tau(  53) = (   0.0003821   1.3842432   1.4966806  )
        54           Cu  tau(  54) = (   0.2501321   1.6156588   1.4962873  )
        55           Cu  tau(  55) = (   0.5002113   1.3843989   1.4963900  )
        56           Cu  tau(  56) = (   0.7502647   1.6157441   1.4960739  )
        57           Cu  tau(  57) = (   0.0001207   1.8471506   1.4957144  )
        58           Cu  tau(  58) = (   0.2500858   2.0782753   1.4956306  )
        59           Cu  tau(  59) = (   0.5001251   1.8473075   1.4957920  )
        60           Cu  tau(  60) = (   0.7501138   2.0783207   1.4955742  )
[...]
       105           C   tau( 105) = (   0.3325218   0.0962801   2.3838471  )
       106           C   tau( 106) = (   0.3323993   0.2885900   2.3788628  )
       107           C   tau( 107) = (   0.4993762   0.0002074   2.3846977  )
       108           C   tau( 108) = (   0.4993768   0.3848633   2.3764734  )
       109           C   tau( 109) = (   0.6662368   0.0964118   2.3840959  )
       110           C   tau( 110) = (   0.6662787   0.2886562   2.3798869  )
       111           C   tau( 111) = (   0.8326681   0.0003019   2.3874107  )
       112           C   tau( 112) = (   0.8327915   0.3847794   2.3811008  )
       113           C   tau( 113) = (  -0.0012722   0.6735101   2.3803848  )
       114           C   tau( 114) = (  -0.0009511   0.8666962   2.3764449  )
       115           C   tau( 115) = (   0.1655204   0.5765016   2.3784056  )
       116           C   tau( 116) = (   0.1624509   0.9643662   2.3844256  )
       117           C   tau( 117) = (   0.3316218   0.6703151   2.3800734  )
       118           C   tau( 118) = (   0.3292206   0.8643671   2.4184809  )
       119           C   tau( 119) = (   0.4987612   0.5771637   2.3788923  )
       120           C_h tau( 120) = (   0.5021138   0.9644200   2.4216837  )
       121           O   tau( 121) = (   0.4140165   0.9101453   2.5990232  )
       122           C   tau( 122) = (   0.6663442   0.6742083   2.3806324  )
       123           C   tau( 123) = (   0.6689595   0.8654305   2.3851659  )
       124           C   tau( 124) = (   0.8329766   0.5774622   2.3796904  )
       125           C   tau( 125) = (   0.8321191   0.9628646   2.3782389  )
       126           C   tau( 126) = (  -0.0010921   1.2520160   2.3785180  )
       127           C   tau( 127) = (  -0.0007197   1.4446627   2.3773574  )
       128           C   tau( 128) = (   0.1654289   1.1553812   2.3831881  )
       129           C   tau( 129) = (   0.1661398   1.5408122   2.3809588  )
       130           C   tau( 130) = (   0.3332591   1.2524179   2.3871897  )
       131           C   tau( 131) = (   0.3327347   1.4447081   2.3843921  )
       132           C   tau( 132) = (   0.4999577   1.1596325   2.3913607  )
       133           C   tau( 133) = (   0.4993062   1.5408861   2.3859785  )
       134           C   tau( 134) = (   0.6656079   1.2530081   2.3829609  )
       135           C   tau( 135) = (   0.6659456   1.4454088   2.3819018  )
       136           C   tau( 136) = (   0.8327273   1.1559617   2.3795433  )
       137           C   tau( 137) = (   0.8326004   1.5410745   2.3794124  )
       138           C   tau( 138) = (  -0.0005841   1.8293317   2.3831804  )
       139           C   tau( 139) = (  -0.0006107   2.0215344   2.3872925  )
       140           C   tau( 140) = (   0.1662470   1.7330653   2.3837749  )
       141           C   tau( 141) = (   0.1660003   2.1175423   2.3879995  )
       142           C   tau( 142) = (   0.3327657   1.8291420   2.3882670  )
       143           C   tau( 143) = (   0.3327961   2.0213806   2.3890482  )
       144           C   tau( 144) = (   0.4993270   1.7331699   2.3878917  )
       145           C   tau( 145) = (   0.4993850   2.1173816   2.3892301  )
       146           C   tau( 146) = (   0.6659668   1.8291231   2.3874666  )
       147           C   tau( 147) = (   0.6659485   2.0213555   2.3883541  )
       148           C   tau( 148) = (   0.8325583   1.7332547   2.3830305  )
       149           C   tau( 149) = (   0.8327361   2.1174924   2.3876620  )

     number of k points=     6  gaussian smearing, width (Ry)=  0.1000
                       cart. coord. in units 2pi/alat
        k(    1) = (   0.0000000   0.0000000   0.0000000), wk =   0.2500000
        k(    2) = (   0.0000000  -0.2165064   0.0000000), wk =   0.2500000
        k(    3) = (   0.2500000   0.0000000   0.0000000), wk =   0.5000000
        k(    4) = (   0.2500000  -0.2165064   0.0000000), wk =   0.5000000
        k(    5) = (  -0.5000000   0.0000000   0.0000000), wk =   0.2500000
        k(    6) = (  -0.5000000  -0.2165064   0.0000000), wk =   0.2500000

     Largest allocated arrays     est. size (Mb)     dimensions
     Largest temporary arrays     est. size (Mb)     dimensions

     Initial potential from superposition of free atoms
     Check: negative starting charge=   -0.001800

     starting charge 1272.81751, renormalised to 1298.00000

     negative rho (up, down):  1.836E-03 0.000E+00
     Starting wfc are 1288 randomized atomic wfcs

     Self-consistent Calculation

     iteration #  1     ecut=    80.00 Ry     beta=0.70
     Davidson diagonalization with overlap
     c_bands:  1 eigenvalues not converged
     c_bands:  2 eigenvalues not converged
     c_bands:  1 eigenvalues not converged
     c_bands:  3 eigenvalues not converged
     c_bands:  1 eigenvalues not converged
     ethr =  1.00E-04,  avg # of iterations = 35.5

     negative rho (up, down):  2.561E+01 0.000E+00

     total energy              =   -9738.09956434 Ry
     Harris-Foulkes estimate   =  -17298.11138123 Ry
     estimated scf accuracy    <  178771.12097669 Ry

     iteration #  2     ecut=    80.00 Ry     beta=0.70
     Davidson diagonalization with overlap
     ethr =  1.00E-02,  avg # of iterations = 12.0

[...]

     iteration # 39     ecut=    80.00 Ry     beta=0.70
     Davidson diagonalization with overlap
     c_bands:  2 eigenvalues not converged
     c_bands:  1 eigenvalues not converged
     ethr =  4.72E-10,  avg # of iterations = 10.3

[...]

     total energy              =  -12738.71502681 Ry
     Harris-Foulkes estimate   =  -12738.71502679 Ry
     estimated scf accuracy    <       0.00000001 Ry

     iteration # 44     ecut=    80.00 Ry     beta=0.70
     Davidson diagonalization with overlap
     ethr =  8.33E-13,  avg # of iterations =  3.0

     negative rho (up, down):  2.083E-03 0.000E+00

     End of self-consistent calculation

          k = 0.0000 0.0000 0.0000 (256287 PWs)   bands (ev):

   -20.8532 -16.4121 -16.1395 -16.0095 -15.2315 -15.0252 -14.8273 -14.4169
   -14.2822 -14.1758 -14.1476 -13.9869 -13.4334 -13.3007 -13.1585 -13.1099
   -13.0971 -12.9190 -11.6960 -11.5687 -11.4163 -11.3840 -11.2155 -10.4302
    -9.8644  -9.7253  -9.6376  -9.5525  -9.0385  -8.8908  -8.7142  -8.6279
    -8.1809  -7.9977  -7.8571  -7.6977  -7.6270  -7.5901  -7.5522  -7.5451
    -6.5625  -6.4751  -6.2572  -6.0668  -6.0483  -5.9779  -5.9250  -5.8993
    -5.8738  -5.5181  -5.5146  -5.3514  -5.0878  -4.9292  -4.8615  -4.7417
    -4.6651  -4.6115  -4.5434  -4.3994  -4.1768  -4.1399  -4.0351  -4.0178
    -4.0157  -3.9428  -3.7193  -3.5880  -3.5644  -3.4878  -3.4384  -3.4342
    -3.4336  -3.3714  -3.2628  -3.2123  -3.1907  -3.0617  -3.0487  -3.0374
    -3.0347  -3.0319  -3.0152  -2.8937  -2.8603  -2.8381  -2.8085  -2.7669
    -2.7633  -2.7402  -2.7272  -2.6590  -2.5750  -2.4170  -2.4159  -2.3714
    -2.3682  -2.2894  -2.2739  -2.2230  -2.2204  -2.1923  -2.1810  -2.1807
    -2.1806  -2.1800  -2.1177  -2.1090  -2.0642  -2.0520  -2.0505  -2.0486
    -2.0480  -1.9865  -1.8928  -1.8701  -1.8137  -1.8052  -1.7687  -1.7668
    -1.7639  -1.7631  -1.7139  -1.7020  -1.6980  -1.6874  -1.6838  -1.6282
    -1.6241  -1.6069  -1.5958  -1.5921  -1.5912  -1.5854  -1.5627  -1.5594
    -1.5442  -1.5433  -1.5411  -1.4978  -1.4650  -1.4576  -1.4448  -1.4316
    -1.4111  -1.3883  -1.3815  -1.3688  -1.3405  -1.3275  -1.2925  -1.2912
    -1.2795  -1.2407  -1.2394  -1.2205  -1.2182  -1.1986  -1.1955  -1.1925
    -1.1699  -1.1437  -1.1388  -1.0900  -1.0788  -1.0739  -1.0702  -1.0608
    -1.0520  -1.0514  -1.0499  -1.0498  -1.0457  -1.0454  -1.0409  -1.0341
    -1.0272  -1.0216  -1.0035  -0.9808  -0.9671  -0.9624  -0.9547  -0.9486
    -0.9478  -0.9455  -0.9157  -0.8881  -0.8875  -0.8853  -0.8843  -0.8833
    -0.8827  -0.8826  -0.8811  -0.8793  -0.8780  -0.8768  -0.8766  -0.8734
    -0.8721  -0.8706  -0.8703  -0.8566  -0.8553  -0.8318  -0.8146  -0.7194
    -0.7180  -0.7158  -0.7121  -0.7114  -0.6908  -0.6883  -0.6710  -0.6704
    -0.6519  -0.6486  -0.6433  -0.6364  -0.6297  -0.6285  -0.6168  -0.5973
    -0.5933  -0.5901  -0.5892  -0.5835  -0.5823  -0.5770  -0.5714  -0.5708
    -0.5221  -0.5205  -0.4673  -0.4671  -0.4575  -0.4563  -0.4539  -0.4532
    -0.4402  -0.4383  -0.4345  -0.4332  -0.4326  -0.4321  -0.4293  -0.4287
    -0.4186  -0.4137  -0.4136  -0.4062  -0.4033  -0.3896  -0.3801  -0.3796
    -0.3297  -0.3272  -0.3260  -0.3198  -0.3197  -0.2940  -0.2939  -0.2918
    -0.2914  -0.2850  -0.2762  -0.2744  -0.2711  -0.2709  -0.2581  -0.2494
    -0.2475  -0.2463  -0.2447  -0.2435  -0.2422  -0.2403  -0.2390  -0.2387
    -0.2308  -0.2189  -0.2188  -0.2166  -0.2154  -0.1957  -0.1568  -0.1498
    -0.1473  -0.1471  -0.1441  -0.1421  -0.1069  -0.1011  -0.0968  -0.0962
    -0.0950  -0.0914  -0.0908  -0.0900  -0.0894  -0.0862  -0.0763  -0.0736
    -0.0412  -0.0389  -0.0372  -0.0342  -0.0280  -0.0169  -0.0096  -0.0077
    -0.0051  -0.0042   0.0031   0.0066   0.0169   0.0178   0.0179   0.0185
     0.0218   0.0252   0.0343   0.0350   0.0356   0.0358   0.0396   0.0465
     0.0533   0.0614   0.0738   0.0768   0.1055   0.1074   0.1235   0.1363
     0.1390   0.1506   0.1608   0.1701   0.1905   0.2065   0.2077   0.2084
     0.2140   0.2147   0.2173   0.2422   0.2430   0.2447   0.2462   0.2514
     0.2533   0.2573   0.2597   0.2987   0.3125   0.3130   0.3198   0.3211
     0.3229   0.3249   0.3486   0.3531   0.3547   0.3556   0.3564   0.3771
     0.3886   0.3922   0.3938   0.4053   0.4077   0.4122   0.4131   0.4149
     0.4391   0.4529   0.4589   0.4658   0.4675   0.4711   0.4712   0.4731
     0.4812   0.4941   0.5013   0.5016   0.5051   0.5062   0.5070   0.5091
     0.5109   0.5133   0.5161   0.5206   0.5270   0.5276   0.5284   0.5338
     0.5377   0.5397   0.5673   0.5774   0.5777   0.5813   0.5917   0.6190
     0.6192   0.6211   0.6224   0.6254   0.6258   0.6264   0.6269   0.6287
     0.6392   0.6454   0.6490   0.6514   0.6523   0.6530   0.6593   0.6594
     0.6691   0.6721   0.6803   0.6922   0.6932   0.6946   0.6989   0.7050
     0.7064   0.7140   0.7189   0.7207   0.7207   0.7243   0.7266   0.7278
     0.7301   0.7389   0.7420   0.7631   0.7774   0.7781   0.7891   0.7921
     0.7940   0.7946   0.7958   0.7970   0.8243   0.8274   0.8362   0.8423
     0.8459   0.8480   0.8485   0.8619   0.8623   0.8714   0.8724   0.8737
     0.8745   0.8800   0.8926   0.9088   0.9104   0.9127   0.9132   0.9139
     0.9152   0.9317   0.9388   0.9484   0.9525   0.9573   0.9580   0.9691
[...]
     3.9443   3.9786   3.9811   3.9811   3.9853   3.9861   3.9913   3.9997
     4.0842   4.2295   4.2372   4.2395   4.2782   4.4134   4.5748   4.7385
     4.8678   4.8894   5.0002   5.2721   5.3833   5.3901   5.4213   5.5753
     5.7020   5.7110   5.7125   5.7427   5.9056   5.9263   6.2864   6.3434
     6.3561   6.3841   6.4217   6.4617   6.4645   6.4806   6.4966   6.5784
     6.5884   6.6773   6.7027   6.7592   6.7711   6.7983   6.8197   6.9583
     7.0226   7.0271   7.0546   7.0744   7.0782   7.3143   7.3328   7.4157
     7.5520   7.5591   7.6736   7.6766   7.6829   7.6855   7.6992   8.0208
     8.1165   8.1336   8.1939   8.2335   8.2442   8.3077   8.3096   8.3110
     8.3196   8.3359   8.3806   8.3881   8.4004   8.4208   8.5288   8.5380
     8.5478   8.6409   8.6496   8.6521   8.6577   8.8006   8.8152   8.8175
     8.8235   8.8425   8.8454   8.9106   9.0552   9.0926   9.1030   9.1092
     9.1219   9.1310   9.2512   9.2687   9.3132   9.3233   9.3287   9.4657
     9.5511   9.5543   9.5814   9.6840   9.7295   9.7748   9.8016   9.8204
    10.0154  10.0162  10.1246

[...]

          k = 0.2500-0.2165 0.0000 (256316 PWs)   bands (ev):

[...]

          k =-0.5000 0.0000 0.0000 (256496 PWs)   bands (ev):

[...]

          k =-0.5000-0.2165 0.0000 (256328 PWs)   bands (ev):

   -20.8513 -16.1609 -15.8624 -15.8281 -15.7088 -15.3161 -15.2213 -15.1315
   -14.9153 -14.0002 -13.8203 -13.6951 -13.6096 -12.7621 -12.2269 -12.0318
   -12.0217 -11.8430 -11.7965 -11.6528 -11.6047 -11.5706 -11.4728 -11.4403
   -11.4237 -10.1236 -10.0015  -9.8247  -9.7495  -9.3279  -8.9475  -8.8138
    -8.7963  -8.3473  -8.3131  -8.0499  -8.0231  -6.7610  -6.6570  -6.2877
    -5.9866  -5.9128  -5.7516  -5.5044  -5.4571  -5.3406  -5.2810  -5.2126
    -5.2108  -5.2105  -5.2079  -5.0626  -5.0405  -5.0307  -4.6284  -4.4557
    -4.4146  -4.3741  -4.3608  -4.3183  -4.2622  -4.2464  -4.2285  -4.2273
    -4.2262  -4.2051  -4.1322  -3.9944  -3.9728  -3.8880  -3.8806  -3.8457
    -3.7995  -3.7540  -3.7275  -3.6675  -3.6171  -3.6030  -3.5398  -3.5077
    -3.4915  -3.3270  -3.1864  -3.1091  -3.0845  -2.9308  -2.7976  -2.6477
    -2.6094  -2.6086  -2.6074  -2.6071  -2.5762  -2.5516  -2.5471  -2.5397
    -2.5036  -2.3909  -2.2580  -2.1761  -2.1335  -2.1278  -2.1269  -2.1057
    -2.0851  -2.0744  -2.0568  -2.0421  -2.0344  -2.0290  -1.9868  -1.8339
    -1.8325  -1.8310  -1.8281  -1.7890  -1.7658  -1.6990  -1.6163  -1.5493
    -1.5317  -1.5228  -1.5225  -1.5218  -1.5216  -1.4895  -1.4853  -1.4828
    -1.4815  -1.4695  -1.4627  -1.4616  -1.4613  -1.4598  -1.4151  -1.4144
    -1.4140  -1.4129  -1.4123  -1.4116  -1.4091  -1.4057  -1.3877  -1.3873
    -1.3867  -1.3863  -1.3462  -1.3371  -1.3360  -1.3354  -1.3349  -1.2764
    -1.2622  -1.2582  -1.2570  -1.2204  -1.2196  -1.2191  -1.2188  -1.2077
    -1.2017  -1.2005  -1.1992  -1.1755  -1.1578  -1.1497  -1.1496  -1.1481
    -1.1470  -1.1446  -1.1445  -1.1437  -1.1426  -1.1180  -1.1073  -1.1040
    -1.0887  -1.0883  -1.0841  -1.0818  -1.0718  -1.0715  -1.0697  -1.0676
    -1.0672  -1.0660  -1.0655  -1.0648  -1.0639  -1.0409  -0.9141  -0.9127
    -0.9119  -0.9096  -0.8908  -0.8819  -0.8813  -0.8808  -0.8781  -0.8011
    -0.8002  -0.7991  -0.7980  -0.7962  -0.7931  -0.7919  -0.7914  -0.7911
    -0.7902  -0.7873  -0.7449  -0.7295  -0.7289  -0.7276  -0.7249  -0.7199
    -0.7181  -0.7176  -0.7093  -0.6983  -0.6952  -0.6923  -0.6906  -0.6060
    -0.6030  -0.6013  -0.5998  -0.5983  -0.5968  -0.5923  -0.5739  -0.5282
    -0.5278  -0.5270  -0.5257  -0.4784  -0.4776  -0.4771  -0.4760  -0.4580
    -0.4575  -0.4567  -0.4560  -0.4320  -0.4306  -0.4269  -0.4210  -0.4190
    -0.4183  -0.4174  -0.4165  -0.3853  -0.3802  -0.3786  -0.3677  -0.3042
    -0.3039  -0.3011  -0.3002  -0.2867  -0.2861  -0.2857  -0.2852  -0.2699
    -0.2696  -0.2688  -0.2680  -0.1920  -0.1866  -0.1864  -0.1840  -0.1831
    -0.1824  -0.1820  -0.1804  -0.1795  -0.1787  -0.1774  -0.1758  -0.1411
    -0.1411  -0.1409  -0.1403  -0.1292  -0.1288  -0.1282  -0.1281  -0.1255
    -0.1249  -0.1231  -0.1228  -0.0593  -0.0562  -0.0556  -0.0546  -0.0399
    -0.0308  -0.0291  -0.0279  -0.0208   0.0142   0.0181   0.0247   0.0259
     0.0279   0.0440   0.0487   0.0509   0.0518   0.0522   0.0536   0.0569
     0.0585   0.0603   0.0610   0.0638   0.0648   0.0670   0.0707   0.0717
     0.0723   0.0746   0.0763   0.0780   0.0782   0.0790   0.0794   0.0941
     0.0945   0.0951   0.0967   0.1225   0.1226   0.1227   0.1230   0.1284
     0.1311   0.1324   0.1338   0.1390   0.1815   0.1817   0.1826   0.1836
     0.2134   0.2140   0.2155   0.2160   0.2445   0.2779   0.2853   0.2917
     0.2943   0.2961   0.2978   0.2983   0.3004   0.3062   0.3145   0.3152
     0.3161   0.3181   0.3262   0.3291   0.3298   0.3363   0.3367   0.3375
     0.3384   0.3393   0.3419   0.3431   0.3462   0.3472   0.3509   0.3595
     0.3687   0.4071   0.4145   0.4223   0.4240   0.4246   0.4261   0.4280
     0.4288   0.4326   0.4408   0.4411   0.4412   0.4422   0.4665   0.4744
     0.4796   0.4804   0.4817   0.4827   0.4851   0.4862   0.5015   0.5202
     0.5229   0.5248   0.5262   0.5280   0.5378   0.5389   0.5392   0.5399
     0.5411   0.5459   0.5461   0.5474   0.5490   0.5531   0.5587   0.5608
     0.5635   0.5651   0.5685   0.5752   0.5782   0.5798   0.6109   0.6343
     0.6419   0.6482   0.6510   0.6522   0.6536   0.6540   0.6551   0.6562
     0.6620   0.6632   0.6648   0.6699   0.6816   0.6922   0.6991   0.6993
     0.7007   0.7009   0.7015   0.7027   0.7035   0.7046   0.7138   0.7457
     0.7548   0.7549   0.7586   0.7815   0.7825   0.7831   0.7849   0.7894
     0.8027   0.8104   0.8185   0.8191   0.8196   0.8205   0.8424   0.8440
     0.8459   0.8465   0.8882   0.8956   0.8963   0.8969   0.8979   0.9285
     0.9295   0.9297   0.9310   0.9533   0.9807   0.9816   0.9836   0.9839
[...]
     4.3065   4.3247   4.3282   4.3407   4.5293   4.5335   4.5420   4.5450
     4.5583   4.5669   4.5732   4.6445   4.8544   4.8634   4.8825   4.9400
     4.9985   5.0428   5.0511   5.1184   5.1425   5.1486   5.1522   5.1685
     5.2551   5.2710   5.2787   5.3236   5.3368   5.3406   5.3486   5.4439
     5.6059   5.7128   5.7175   5.7204   5.7231   5.7278   5.7340   5.8395
     5.8805   5.8871   5.8881   6.7168   6.7429   6.7621   6.7662   6.8061
     7.0528   7.0965   7.1003   7.1078   7.1167   7.1340   7.1358   7.1515
     7.2390   7.2717   7.2788   7.2845   7.3338   7.3403   7.3430   7.3477
     7.4843   7.6047   7.6113   7.6205   7.7510   7.8800   7.9492   7.9633
     7.9706   7.9815   8.0067   8.1843   8.2056   8.2126   8.2183   8.3527
     8.4076   8.4156   8.4270   8.6765   8.8636   8.8675   8.8689   8.8728
     8.8987   8.9016   8.9053   8.9103   8.9380   8.9396   8.9440   8.9469
     9.1379   9.1383   9.1420   9.1519   9.3570   9.4021   9.4167   9.4384
     9.5063   9.5161   9.5383   9.5535   9.5553   9.5707   9.5736   9.6822
     9.7942   9.8935  10.0186

     the Fermi energy is     3.2928 ev

!    total energy              =  -12738.71502682 Ry
     Harris-Foulkes estimate   =  -12738.71502681 Ry
     estimated scf accuracy    <          5.5E-09 Ry

     The total energy is the sum of the following terms:

     one-electron contribution = -109170.41751941 Ry
     hartree contribution      =   55948.14293281 Ry
     xc contribution           =   -4454.76129105 Ry
     ewald contribution        =   44944.67964103 Ry
     Dispersion Correction     =      -3.00103089 Ry
     smearing contrib. (-TS)   =      -3.35775932 Ry

     convergence has been achieved in  44 iterations

     Writing output data file gc.save

     General routines

     Parallel routines

   This run was terminated on:  14: 7:53  30Dec2016

   JOB DONE.