     Program PWSCF v.5.4.0 starts on  8Sep2017 at  0: 6:49

     Current dimensions of program PWSCF are:
     Max number of different atomic species (ntypx) = 10
     Max number of k-points (npk) =  40000
     Max angular momentum in pseudopotentials (lmaxx) =  3

     Parameters for Dispersion Correction:
       atom      VdW radius       C_6

        Cu         2.952        374.666
        C_h        2.744         60.710
        C          2.744         60.710

     bravais-lattice index     =            0
     lattice parameter (alat)  =      13.9425  a.u.
     unit-cell volume          =   21209.0878 (a.u.)^3
     number of atoms/cell      =          148
     number of atomic types    =            3
     number of electrons       =      1292.00
     number of Kohn-Sham states=          775
     kinetic-energy cutoff     =      80.0000  Ry
     charge density cutoff     =     320.0000  Ry
     convergence threshold     =      1.0E-08
     mixing beta               =       0.7000
     number of iterations used =            8  local-TF  mixing
     Exchange-correlation      =  SLA  PW   PBX  PBC ( 1  4  3  4 0 0)

     celldm(1)=  13.942539  celldm(2)=   0.000000  celldm(3)=   0.000000
     celldm(4)=   0.000000  celldm(5)=   0.000000  celldm(6)=   0.000000

     crystal axes: (cart. coord. in units of alat)
               a(1) = (   1.000000   0.000000   0.000000 )
               a(2) = (   0.000000   2.309401   0.000000 )
               a(3) = (   0.000000   0.000000   3.388418 )

     reciprocal axes: (cart. coord. in units 2 pi/alat)
               b(1) = (  1.000000  0.000000  0.000000 )
               b(2) = (  0.000000  0.433013  0.000000 )
               b(3) = (  0.000000  0.000000  0.295123 )

     PseudoPot. # 1 for Cu read from file:
     /home/549/hxw549/Short/pseudopotentials/Cu.pbe-n-van_ak.UPF
     MD5 check sum: 601f7c30f7467666bec936e0661ce3e1
     Pseudo is Ultrasoft + core correction, Zval = 11.0
     Generated by new atomic code, or converted to UPF format
     Using radial grid of  867 points,  6 beta functions with:
                l(1) =   0
                l(2) =   0
                l(3) =   1
                l(4) =   1
                l(5) =   2
                l(6) =   2
     Q(r) pseudized with  8 coefficients,  rinner =    1.400   1.400   1.400
                                                       1.400   1.400

     PseudoPot. # 2 for C  read from file:
     /home/549/hxw549/Short/pseudopotentials/C.star1s-pbe-mt_gipaw.UPF
     MD5 check sum: ef0cb3dee31bd9e4ba2a832a2c716264
     Pseudo is Norm-conserving, Zval =  5.0
     Generated by new atomic code, or converted to UPF format
     Using radial grid of 1073 points,  1 beta functions with:
                l(1) =   0

     PseudoPot. # 3 for C  read from file:
     /home/549/hxw549/Short/pseudopotentials/C.pbe-mt_gipaw.UPF
     MD5 check sum: 5ac2f21f2c440b14befe521540822c15
     Pseudo is Norm-conserving, Zval =  4.0
     Generated by new atomic code, or converted to UPF format
     Using radial grid of 1073 points,  1 beta functions with:
                l(1) =   0

     atomic species   valence    mass     pseudopotential
        Cu            11.00    63.54600     Cu( 1.00)
        C_h            5.00    12.01070     C ( 1.00)
        C              4.00    12.01070     C ( 1.00)

     No symmetry found

   Cartesian axes

     site n.     atom                  positions (alat units)
         1           Cu  tau(   1) = (   0.0000000   0.0000567   0.9971194  )
         2           Cu  tau(   2) = (   0.2499927   0.2309760   0.9972946  )
         3           Cu  tau(   3) = (   0.5000000   0.0000313   0.9971490  )
         4           Cu  tau(   4) = (   0.7500073   0.2309760   0.9972946  )
         5           Cu  tau(   5) = (   0.0000000   0.4618437   0.9973425  )
         6           Cu  tau(   6) = (   0.2499840   0.6927701   0.9971914  )
         7           Cu  tau(   7) = (   0.5000000   0.4618722   0.9973119  )
         8           Cu  tau(   8) = (   0.7500160   0.6927701   0.9971914  )
         9           Cu  tau(   9) = (   0.0000000   0.9237521   0.9970621  )
        10           Cu  tau(  10) = (   0.2500157   1.1547420   0.9971373  )
        11           Cu  tau(  11) = (   0.5000000   0.9237453   0.9970727  )
        12           Cu  tau(  12) = (   0.7499843   1.1547420   0.9971373  )
        13           Cu  tau(  13) = (   0.0000000   1.3856555   0.9972830  )
        14           Cu  tau(  14) = (   0.2500029   1.6165618   0.9973242  )
        15           Cu  tau(  15) = (   0.5000000   1.3857014   0.9973005  )
        16           Cu  tau(  16) = (   0.7499971   1.6165618   0.9973242  )
        17           Cu  tau(  17) = (   0.0000000   1.8474941   0.9971969  )
        18           Cu  tau(  18) = (   0.2500043   2.0784518   0.9970745  )
        19           Cu  tau(  19) = (   0.5000000   1.8474499   0.9971773  )
        20           Cu  tau(  20) = (   0.7499957   2.0784518   0.9970745  )
        21           Cu  tau(  21) = (   0.0000000   0.2308065   1.2457643  )
        22           Cu  tau(  22) = (   0.2499892  -0.0001010   1.2455764  )
        23           Cu  tau(  23) = (   0.5000000   0.2308938   1.2456746  )
        24           Cu  tau(  24) = (   0.7500108  -0.0001010   1.2455764  )
        25           Cu  tau(  25) = (   0.0000000   0.6929786   1.2456406  )
        26           Cu  tau(  26) = (   0.2499874   0.4619293   1.2457459  )
        27           Cu  tau(  27) = (   0.5000000   0.6929012   1.2456074  )
        28           Cu  tau(  28) = (   0.7500126   0.4619293   1.2457459  )
        29           Cu  tau(  29) = (   0.0000000   1.1546142   1.2455676  )
        30           Cu  tau(  30) = (   0.2499981   0.9237849   1.2455149  )
        31           Cu  tau(  31) = (   0.5000000   1.1545763   1.2455800  )
        32           Cu  tau(  32) = (   0.7500019   0.9237849   1.2455149  )
        33           Cu  tau(  33) = (   0.0000000   1.6166029   1.2456910  )
        34           Cu  tau(  34) = (   0.2500161   1.3855492   1.2457134  )
        35           Cu  tau(  35) = (   0.5000000   1.6166555   1.2458019  )
        36           Cu  tau(  36) = (   0.7499839   1.3855492   1.2457134  )
        37           Cu  tau(  37) = (   0.0000000   2.0784993   1.2455162  )
        38           Cu  tau(  38) = (   0.2500161   1.8476387   1.2456210  )
        39           Cu  tau(  39) = (   0.5000000   2.0784755   1.2455152  )
        40           Cu  tau(  40) = (   0.7499839   1.8476387   1.2456210  )
        41           Cu  tau(  41) = (   0.0000000  -0.0003182   1.4954305  )
        42           Cu  tau(  42) = (   0.2500224   0.2307186   1.4951678  )
        43           Cu  tau(  43) = (   0.5000000  -0.0002059   1.4952775  )
        44           Cu  tau(  44) = (   0.7499776   0.2307186   1.4951678  )
        45           Cu  tau(  45) = (   0.0000000   0.4620254   1.4950571  )
        46           Cu  tau(  46) = (   0.2500339   0.6931225   1.4952807  )
        47           Cu  tau(  47) = (   0.5000000   0.4619896   1.4952144  )
        48           Cu  tau(  48) = (   0.7499661   0.6931225   1.4952807  )
        49           Cu  tau(  49) = (   0.0000000   0.9238798   1.4954544  )
        50           Cu  tau(  50) = (   0.2499708   1.1544329   1.4953374  )
        51           Cu  tau(  51) = (   0.5000000   0.9237633   1.4954072  )
        52           Cu  tau(  52) = (   0.7500292   1.1544329   1.4953374  )
        53           Cu  tau(  53) = (   0.0000000   1.3854453   1.4952066  )
        54           Cu  tau(  54) = (   0.2499861   1.6167017   1.4951298  )
        55           Cu  tau(  55) = (   0.5000000   1.3853760   1.4951346  )
        56           Cu  tau(  56) = (   0.7500139   1.6167017   1.4951298  )
        57           Cu  tau(  57) = (   0.0000000   1.8477718   1.4952308  )
        58           Cu  tau(  58) = (   0.2499930   2.0785254   1.4954090  )
        59           Cu  tau(  59) = (   0.5000000   1.8478762   1.4953503  )
        60           Cu  tau(  60) = (   0.7500070   2.0785254   1.4954090  )
[...]
       105           C   tau( 105) = (   0.4664266   0.0962174   2.3860158  )
       106           C   tau( 106) = (   0.4664307   0.2886629   2.3856823  )
       107           C   tau( 107) = (   0.6333035  -0.0000818   2.3845687  )
       108           C   tau( 108) = (   0.6333035   0.3849277   2.3842391  )
       109           C   tau( 109) = (   0.8001790   0.0962174   2.3860158  )
       110           C   tau( 110) = (   0.8001750   0.2886629   2.3856823  )
       111           C   tau( 111) = (   0.9666710   0.0000435   2.3878440  )
       112           C   tau( 112) = (   0.9668133   0.3848966   2.3886743  )
       113           C   tau( 113) = (   0.1333031   0.6735163   2.3892509  )
       114           C   tau( 114) = (   0.1333031   0.8659398   2.3870960  )
       115           C   tau( 115) = (   0.2997788   0.5773226   2.3882842  )
       116           C   tau( 116) = (   0.3000458   0.9622141   2.3870264  )
       117           C   tau( 117) = (   0.4665120   0.6735984   2.3858047  )
       118           C   tau( 118) = (   0.4665066   0.8660537   2.3866148  )
       119           C   tau( 119) = (   0.6333035   0.5773685   2.3848465  )
       120           C_h tau( 120) = (   0.6333035   0.9623380   2.3860825  )
       121           C   tau( 121) = (   0.8000936   0.6735984   2.3858047  )
       122           C   tau( 122) = (   0.8001004   0.8660537   2.3866148  )
       123           C   tau( 123) = (   0.9668268   0.5773226   2.3882842  )
       124           C   tau( 124) = (   0.9665598   0.9622141   2.3870264  )
       125           C   tau( 125) = (   0.1333031   1.2508867   2.3852683  )
       126           C   tau( 126) = (   0.1333031   1.4433300   2.3840871  )
       127           C   tau( 127) = (   0.3000390   1.1546708   2.3859697  )
       128           C   tau( 128) = (   0.3001976   1.5396104   2.3857176  )
       129           C   tau( 129) = (   0.4668129   1.2509657   2.3878953  )
       130           C   tau( 130) = (   0.4667898   1.4433958   2.3886602  )
       131           C   tau( 131) = (   0.6333035   1.1547731   2.3885512  )
       132           C   tau( 132) = (   0.6333035   1.5396099   2.3901428  )
       133           C   tau( 133) = (   0.7997941   1.2509657   2.3878953  )
       134           C   tau( 134) = (   0.7998171   1.4433958   2.3886602  )
       135           C   tau( 135) = (   0.9665666   1.1546708   2.3859697  )
       136           C   tau( 136) = (   0.9664094   1.5396104   2.3857176  )
       137           C   tau( 137) = (   0.1333031   1.8283510   2.3842019  )
       138           C   tau( 138) = (   0.1333031   2.0207949   2.3863399  )
       139           C   tau( 139) = (   0.3001989   1.7320513   2.3858703  )
       140           C   tau( 140) = (   0.2999211   2.1169980   2.3865340  )
       141           C   tau( 141) = (   0.4667180   1.8282368   2.3882160  )
       142           C   tau( 142) = (   0.4667383   2.0206763   2.3869561  )
       143           C   tau( 143) = (   0.6333035   1.7319961   2.3895398  )
       144           C   tau( 144) = (   0.6333035   2.1168754   2.3870198  )
       145           C   tau( 145) = (   0.7998876   1.8282368   2.3882160  )
       146           C   tau( 146) = (   0.7998673   2.0206763   2.3869561  )
       147           C   tau( 147) = (   0.9664067   1.7320513   2.3858703  )
       148           C   tau( 148) = (   0.9666845   2.1169980   2.3865340  )

     number of k points=     6  gaussian smearing, width (Ry)=  0.1000
                       cart. coord. in units 2pi/alat
        k(    1) = (   0.0000000   0.0000000   0.0000000), wk =   0.2500000
        k(    2) = (   0.0000000  -0.2165064   0.0000000), wk =   0.2500000
        k(    3) = (   0.2500000   0.0000000   0.0000000), wk =   0.5000000
        k(    4) = (   0.2500000  -0.2165064   0.0000000), wk =   0.5000000
        k(    5) = (  -0.5000000   0.0000000   0.0000000), wk =   0.2500000
        k(    6) = (  -0.5000000  -0.2165064   0.0000000), wk =   0.2500000

     Largest allocated arrays     est. size (Mb)     dimensions
     Largest temporary arrays     est. size (Mb)     dimensions

     Initial potential from superposition of free atoms
     Check: negative starting charge=   -0.001843

     starting charge 1266.81751, renormalised to 1292.00000

     negative rho (up, down):  1.879E-03 0.000E+00
     Starting wfc are 1284 randomized atomic wfcs

     Self-consistent Calculation

     iteration #  1     ecut=    80.00 Ry     beta=0.70
     Davidson diagonalization with overlap
     c_bands:  3 eigenvalues not converged
     c_bands:  4 eigenvalues not converged
     ethr =  1.00E-04,  avg # of iterations = 36.3

     negative rho (up, down):  2.723E+01 0.000E+00

     total energy              =   -9475.96961106 Ry
     Harris-Foulkes estimate   =  -17310.56126301 Ry
     estimated scf accuracy    <  180108.90159722 Ry

     iteration #  2     ecut=    80.00 Ry     beta=0.70
     Davidson diagonalization with overlap
     ethr =  1.00E-02,  avg # of iterations = 12.2

[...]

     iteration # 40     ecut=    80.00 Ry     beta=0.70
     Davidson diagonalization with overlap
     c_bands:  1 eigenvalues not converged
     ethr =  5.18E-09,  avg # of iterations =  7.2

[...]

     total energy              =  -12707.14317701 Ry
     Harris-Foulkes estimate   =  -12707.14317705 Ry
     estimated scf accuracy    <       0.00000002 Ry

     iteration # 47     ecut=    80.00 Ry     beta=0.70
     Davidson diagonalization with overlap
     ethr =  1.48E-12,  avg # of iterations =  3.0

     negative rho (up, down):  2.115E-03 0.000E+00

     End of self-consistent calculation

          k = 0.0000 0.0000 0.0000 (256287 PWs)   bands (ev):

   -17.2758 -16.2344 -16.0883 -15.4283 -15.0442 -14.7910 -14.6909 -14.2534
   -14.1993 -14.1399 -14.1243 -13.4662 -13.3254 -13.1553 -13.1225 -13.0868
   -13.0800 -11.6712 -11.5327 -11.4847 -11.3898 -11.2057 -10.3528  -9.7669
    -9.7616  -9.6260  -9.5240  -8.9871  -8.8000  -8.6721  -8.6027  -8.0447
    -7.9031  -7.7631  -7.6410  -7.5820  -7.5739  -7.5355  -7.5247  -6.3597
    -6.3490  -6.1250  -6.0216  -6.0204  -5.9496  -5.8905  -5.8601  -5.8450
    -5.4975  -5.4849  -5.2996  -4.8911  -4.8398  -4.7987  -4.6349  -4.6216
    -4.5831  -4.4257  -4.2559  -4.1471  -3.9892  -3.9877  -3.9694  -3.9466
    -3.6195  -3.5500  -3.5277  -3.5227  -3.4217  -3.4185  -3.4068  -3.4002
    -3.2768  -3.1866  -3.1231  -3.0583  -3.0162  -3.0074  -3.0073  -3.0060
    -2.9916  -2.8586  -2.8351  -2.7989  -2.7813  -2.7455  -2.7398  -2.7387
    -2.7189  -2.7146  -2.5323  -2.4334  -2.3771  -2.3763  -2.3392  -2.3361
    -2.1943  -2.1919  -2.1822  -2.1771  -2.1519  -2.1518  -2.1517  -2.1516
    -2.1136  -2.0785  -2.0779  -2.0358  -2.0211  -2.0209  -2.0208  -2.0205
    -1.9603  -1.8415  -1.7769  -1.7424  -1.7385  -1.7378  -1.7375  -1.7029
    -1.6928  -1.6716  -1.6582  -1.6566  -1.6105  -1.6013  -1.5892  -1.5702
    -1.5641  -1.5634  -1.5613  -1.5509  -1.5396  -1.5351  -1.5347  -1.5154
    -1.5139  -1.4560  -1.4412  -1.4261  -1.4156  -1.3841  -1.3816  -1.3766
    -1.3718  -1.3528  -1.2989  -1.2945  -1.2637  -1.2620  -1.2506  -1.2114
    -1.2113  -1.1916  -1.1896  -1.1760  -1.1668  -1.1640  -1.1273  -1.1195
    -1.1096  -1.1068  -1.0493  -1.0465  -1.0355  -1.0298  -1.0267  -1.0248
    -1.0244  -1.0219  -1.0205  -1.0156  -1.0152  -0.9982  -0.9962  -0.9809
    -0.9516  -0.9422  -0.9380  -0.9342  -0.9232  -0.9189  -0.9178  -0.9171
    -0.8990  -0.8581  -0.8580  -0.8564  -0.8562  -0.8554  -0.8545  -0.8536
    -0.8526  -0.8526  -0.8491  -0.8481  -0.8481  -0.8477  -0.8456  -0.8431
    -0.8418  -0.8330  -0.8297  -0.8290  -0.8235  -0.7855  -0.6896  -0.6895
    -0.6856  -0.6831  -0.6825  -0.6603  -0.6584  -0.6413  -0.6411  -0.6196
    -0.6196  -0.6054  -0.6043  -0.6028  -0.6023  -0.5876  -0.5643  -0.5636
    -0.5617  -0.5612  -0.5537  -0.5528  -0.5420  -0.5419  -0.4920  -0.4919
    -0.4381  -0.4377  -0.4274  -0.4258  -0.4256  -0.4244  -0.4105  -0.4103
    -0.4047  -0.4046  -0.4043  -0.4039  -0.3995  -0.3995  -0.3849  -0.3849
    -0.3833  -0.3769  -0.3754  -0.3744  -0.3509  -0.3503  -0.2992  -0.2987
    -0.2967  -0.2909  -0.2908  -0.2643  -0.2642  -0.2642  -0.2642  -0.2489
    -0.2469  -0.2466  -0.2423  -0.2422  -0.2235  -0.2211  -0.2194  -0.2191
    -0.2147  -0.2143  -0.2143  -0.2139  -0.2114  -0.2086  -0.1928  -0.1899
    -0.1892  -0.1879  -0.1873  -0.1684  -0.1203  -0.1200  -0.1180  -0.1179
    -0.1153  -0.0740  -0.0705  -0.0694  -0.0684  -0.0678  -0.0623  -0.0619
    -0.0617  -0.0615  -0.0613  -0.0530  -0.0465  -0.0346  -0.0107  -0.0092
    -0.0075  -0.0070   0.0012   0.0176   0.0214   0.0217   0.0219   0.0264
     0.0302   0.0456   0.0463   0.0478   0.0485   0.0492   0.0494   0.0630
     0.0638   0.0639   0.0640   0.0688   0.0770   0.0772   0.0781   0.1003
     0.1022   0.1305   0.1354   0.1366   0.1574   0.1646   0.1650   0.1892
     0.1937   0.2311   0.2379   0.2386   0.2389   0.2400   0.2434   0.2476
     0.2708   0.2734   0.2737   0.2740   0.2742   0.2840   0.2842   0.2943
     0.3265   0.3409   0.3409   0.3470   0.3496   0.3506   0.3508   0.3775
     0.3834   0.3836   0.3843   0.3845   0.4000   0.4149   0.4184   0.4228
     0.4232   0.4369   0.4375   0.4391   0.4405   0.4783   0.4794   0.4941
     0.4947   0.4967   0.4970   0.4972   0.5087   0.5254   0.5287   0.5309
     0.5330   0.5346   0.5358   0.5359   0.5376   0.5400   0.5470   0.5475
     0.5490   0.5536   0.5543   0.5558   0.5628   0.5643   0.5911   0.5959
     0.6059   0.6060   0.6164   0.6166   0.6486   0.6496   0.6500   0.6507
     0.6527   0.6530   0.6536   0.6541   0.6648   0.6658   0.6740   0.6777
     0.6791   0.6793   0.6811   0.6875   0.6878   0.6946   0.6974   0.6996
     0.7198   0.7208   0.7210   0.7217   0.7313   0.7323   0.7389   0.7428
     0.7464   0.7483   0.7487   0.7487   0.7553   0.7566   0.7594   0.7611
     0.7685   0.7842   0.8059   0.8061   0.8164   0.8178   0.8236   0.8243
     0.8245   0.8254   0.8558   0.8563   0.8700   0.8710   0.8763   0.8764
     0.8910   0.8911   0.9001   0.9006   0.9009   0.9026   0.9092   0.9229
     0.9365   0.9374   0.9396   0.9419   0.9425   0.9439   0.9577   0.9646
     0.9731   0.9778   0.9862   0.9864   0.9972   1.0024   1.0105   1.0113
[...]
     3.8527   3.8552   3.8557   3.8915   3.9675   3.9802   3.9863   4.0059
     4.0086   4.0094   4.0099   4.0133   4.0140   4.2342   4.2486   4.2490
     4.2501   4.3615   4.3996   4.6523   4.7661   4.8533   4.8646   4.9286
     5.3054   5.3918   5.3989   5.4059   5.7015   5.7097   5.7223   5.7242
     5.9152   5.9299   6.2036   6.3429   6.3459   6.4080   6.4155   6.4729
     6.4763   6.4792   6.4832   6.5714   6.5852   6.6021   6.7163   6.7756
     6.7805   6.7936   6.8121   6.8184   7.0132   7.0514   7.0527   7.0639
     7.0728   7.0917   7.3558   7.3577   7.5099   7.5485   7.5519   7.6924
     7.6959   7.7074   7.7089   8.0005   8.0385   8.0937   8.1400   8.1906
     8.2165   8.2995   8.3032   8.3048   8.3352   8.3378   8.3461   8.4017
     8.4053   8.4269   8.4870   8.5595   8.5701   8.5777   8.6619   8.6647
     8.6670   8.6680   8.8135   8.8160   8.8290   8.8324   8.8381   8.8397
     9.1069   9.1093   9.1102   9.1160   9.1199   9.1388   9.1745   9.3150
     9.3446   9.3509   9.4218   9.4799   9.4903   9.5769   9.5784   9.6617
     9.6709   9.8133   9.8310  10.0438  10.0439  10.1239  10.1464

[...]

          k = 0.2500-0.2165 0.0000 (256316 PWs)   bands (ev):

[...]

          k =-0.5000 0.0000 0.0000 (256496 PWs)   bands (ev):

[...]

          k =-0.5000-0.2165 0.0000 (256328 PWs)   bands (ev):

   -17.1619 -15.9788 -15.8208 -15.7958 -15.3891 -15.2198 -15.1511 -15.1150
   -14.0559 -13.8409 -13.7102 -13.6736 -12.6807 -12.4568 -12.0022 -11.9974
   -11.9225 -11.7769 -11.6740 -11.5880 -11.5440 -11.5309 -11.4242 -11.4054
   -10.0438 -10.0372  -9.7699  -9.7242  -9.2266  -8.9132  -8.7981  -8.7594
    -8.2684  -8.2321  -8.0222  -8.0004  -6.5338  -6.3407  -6.1229  -5.9495
    -5.8405  -5.6261  -5.3891  -5.3165  -5.3076  -5.2173  -5.2138  -5.1816
    -5.1798  -5.1796  -5.0195  -5.0055  -4.9477  -4.5117  -4.3885  -4.3518
    -4.3269  -4.3204  -4.2643  -4.2148  -4.2018  -4.1983  -4.1978  -4.1974
    -4.0819  -4.0751  -3.9156  -3.8778  -3.8650  -3.8586  -3.7557  -3.7463
    -3.7032  -3.6906  -3.5980  -3.5928  -3.5885  -3.4875  -3.4666  -3.4567
    -3.1728  -3.0871  -3.0725  -3.0621  -2.6365  -2.5827  -2.5810  -2.5790
    -2.5788  -2.5786  -2.5445  -2.5289  -2.5237  -2.5232  -2.4097  -2.3536
    -2.1606  -2.1530  -2.1104  -2.1009  -2.0966  -2.0957  -2.0527  -2.0502
    -2.0221  -2.0183  -2.0166  -2.0115  -1.9357  -1.8031  -1.8029  -1.8019
    -1.8019  -1.7720  -1.7397  -1.7277  -1.5684  -1.5238  -1.5091  -1.5024
    -1.4935  -1.4934  -1.4933  -1.4933  -1.4593  -1.4562  -1.4539  -1.4539
    -1.4337  -1.4334  -1.4332  -1.4332  -1.3843  -1.3841  -1.3839  -1.3836
    -1.3824  -1.3822  -1.3817  -1.3815  -1.3586  -1.3585  -1.3584  -1.3584
    -1.3089  -1.3085  -1.3073  -1.3073  -1.3039  -1.2383  -1.2335  -1.2328
    -1.2323  -1.1910  -1.1910  -1.1907  -1.1907  -1.1729  -1.1713  -1.1710
    -1.1705  -1.1283  -1.1219  -1.1218  -1.1216  -1.1169  -1.1157  -1.1156
    -1.1155  -1.1127  -1.0959  -1.0923  -1.0905  -1.0889  -1.0572  -1.0571
    -1.0568  -1.0568  -1.0408  -1.0401  -1.0401  -1.0400  -1.0375  -1.0371
    -1.0368  -1.0367  -1.0367  -1.0152  -0.8826  -0.8824  -0.8819  -0.8819
    -0.8534  -0.8529  -0.8526  -0.8525  -0.8045  -0.7710  -0.7702  -0.7698
    -0.7693  -0.7690  -0.7681  -0.7668  -0.7626  -0.7623  -0.7613  -0.7613
    -0.7052  -0.7004  -0.7002  -0.6998  -0.6934  -0.6888  -0.6884  -0.6880
    -0.6764  -0.6677  -0.6671  -0.6670  -0.6431  -0.5834  -0.5713  -0.5711
    -0.5680  -0.5671  -0.5671  -0.5664  -0.5040  -0.4984  -0.4978  -0.4978
    -0.4942  -0.4494  -0.4487  -0.4486  -0.4463  -0.4284  -0.4284  -0.4272
    -0.4272  -0.4099  -0.4000  -0.3998  -0.3892  -0.3892  -0.3884  -0.3883
    -0.3744  -0.3504  -0.3486  -0.3470  -0.3240  -0.2737  -0.2737  -0.2730
    -0.2730  -0.2576  -0.2576  -0.2570  -0.2570  -0.2411  -0.2406  -0.2403
    -0.2381  -0.1601  -0.1592  -0.1582  -0.1574  -0.1535  -0.1533  -0.1529
    -0.1529  -0.1516  -0.1493  -0.1493  -0.1469  -0.1126  -0.1126  -0.1125
    -0.1124  -0.1003  -0.1000  -0.0998  -0.0991  -0.0964  -0.0959  -0.0957
    -0.0956  -0.0716  -0.0268  -0.0266  -0.0261  -0.0258  -0.0005  -0.0002
     0.0013   0.0031   0.0484   0.0488   0.0534   0.0546   0.0613   0.0651
     0.0790   0.0796   0.0803   0.0805   0.0846   0.0863   0.0873   0.0892
     0.0900   0.0912   0.0921   0.0935   0.1003   0.1004   0.1009   0.1011
     0.1063   0.1063   0.1065   0.1065   0.1209   0.1227   0.1229   0.1231
     0.1433   0.1509   0.1510   0.1511   0.1511   0.1603   0.1611   0.1615
     0.1644   0.2097   0.2106   0.2109   0.2112   0.2293   0.2413   0.2438
     0.2440   0.2485   0.2650   0.3101   0.3142   0.3159   0.3254   0.3275
     0.3285   0.3291   0.3326   0.3405   0.3448   0.3454   0.3459   0.3479
     0.3582   0.3610   0.3611   0.3615   0.3618   0.3651   0.3678   0.3688
     0.3692   0.3694   0.3710   0.3729   0.3814   0.3859   0.3967   0.4002
     0.4482   0.4489   0.4513   0.4533   0.4577   0.4580   0.4583   0.4588
     0.4692   0.4693   0.4695   0.4699   0.5052   0.5072   0.5080   0.5086
     0.5098   0.5103   0.5108   0.5111   0.5384   0.5534   0.5537   0.5543
     0.5544   0.5584   0.5670   0.5674   0.5677   0.5681   0.5683   0.5695
     0.5762   0.5765   0.5768   0.5769   0.5881   0.5896   0.5905   0.5907
     0.6038   0.6061   0.6089   0.6102   0.6598   0.6762   0.6763   0.6791
     0.6793   0.6828   0.6831   0.6832   0.6833   0.6849   0.6911   0.6915
     0.6931   0.7006   0.7069   0.7105   0.7281   0.7283   0.7292   0.7293
     0.7311   0.7312   0.7317   0.7322   0.7704   0.7783   0.7835   0.7835
     0.7962   0.8098   0.8115   0.8115   0.8124   0.8198   0.8281   0.8337
     0.8475   0.8477   0.8483   0.8483   0.8691   0.8709   0.8725   0.8728
     0.9252   0.9253   0.9259   0.9259   0.9574   0.9577   0.9599   0.9600
     1.0017   1.0106   1.0118   1.0133   1.0153   1.0221   1.0263   1.0271
[...]
     3.9943   4.2242   4.2251   4.2260   4.2329   4.3156   4.3278   4.3362
     4.3382   4.5110   4.5513   4.5554   4.5588   4.5639   4.5902   4.5959
     4.6638   4.7916   4.8381   4.8868   4.8954   5.0080   5.0348   5.0700
     5.1617   5.1671   5.1702   5.1716   5.2061   5.2524   5.2960   5.3018
     5.3197   5.3374   5.3458   5.3488   5.5176   5.5942   5.7319   5.7352
     5.7451   5.7458   5.7482   5.7491   5.8436   5.8585   5.8835   5.8846
     6.7813   6.7830   6.7838   6.7844   7.1036   7.1151   7.1209   7.1228
     7.1434   7.1487   7.1499   7.1515   7.2543   7.2660   7.2672   7.2728
     7.3610   7.3653   7.3660   7.3664   7.5273   7.6007   7.6051   7.6097
     7.6556   7.8938   7.9506   7.9566   7.9772   7.9788   7.9866   7.9971
     8.2202   8.2378   8.2398   8.2429   8.2456   8.2832   8.3589   8.3642
     8.8867   8.8894   8.8902   8.8912   8.9209   8.9218   8.9234   8.9246
     8.9624   8.9645   8.9658   8.9666   9.1062   9.1101   9.1180   9.1184
     9.3057   9.3241   9.3375   9.3438   9.5145   9.5214   9.5385   9.5392
     9.5614   9.5642   9.5697   9.5725   9.9261   9.9376   9.9685

     the Fermi energy is     3.3208 ev

!    total energy              =  -12707.14317697 Ry
     Harris-Foulkes estimate   =  -12707.14317701 Ry
     estimated scf accuracy    <          7.6E-09 Ry

     The total energy is the sum of the following terms:

     one-electron contribution = -109279.33132789 Ry
     hartree contribution      =   56001.08260088 Ry
     xc contribution           =   -4447.77506114 Ry
     ewald contribution        =   45025.22364109 Ry
     Dispersion Correction     =      -2.98768623 Ry
     smearing contrib. (-TS)   =      -3.35534368 Ry

     convergence has been achieved in  47 iterations

     Writing output data file gc.save

     General routines

     Parallel routines

   This run was terminated on:   3:49:32   8Sep2017

   JOB DONE.