     Program PWSCF v.5.4.0 starts on  2Feb2018 at  2: 2:53

     Current dimensions of program PWSCF are:
     Max number of different atomic species (ntypx) = 10
     Max number of k-points (npk) =  40000
     Max angular momentum in pseudopotentials (lmaxx) =  3
     WARNING: atomic wfc #  2 for atom type 4 has zero norm
     WARNING: atomic wfc #  4 for atom type 4 has zero norm
     WARNING: atomic wfc #  5 for atom type 4 has zero norm

     Parameters for Dispersion Correction:
       atom      VdW radius       C_6

        Cu         2.952        374.666
        C_h        2.744         60.710
        C          2.744         60.710
        O          2.536         24.284

     bravais-lattice index     =            0
     lattice parameter (alat)  =      13.9425  a.u.
     unit-cell volume          =   21209.0878 (a.u.)^3
     number of atoms/cell      =          150
     number of atomic types    =            4
     number of electrons       =      1302.00
     number of Kohn-Sham states=          781
     kinetic-energy cutoff     =      80.0000  Ry
     charge density cutoff     =     320.0000  Ry
     convergence threshold     =      1.0E-08
     mixing beta               =       0.7000
     number of iterations used =            8  local-TF  mixing
     Exchange-correlation      =  SLA  PW   PBX  PBC ( 1  4  3  4 0 0)

     celldm(1)=  13.942539  celldm(2)=   0.000000  celldm(3)=   0.000000
     celldm(4)=   0.000000  celldm(5)=   0.000000  celldm(6)=   0.000000

     crystal axes: (cart. coord. in units of alat)
               a(1) = (   1.000000   0.000000   0.000000 )
               a(2) = (   0.000000   2.309401   0.000000 )
               a(3) = (   0.000000   0.000000   3.388418 )

     reciprocal axes: (cart. coord. in units 2 pi/alat)
               b(1) = (  1.000000  0.000000  0.000000 )
               b(2) = (  0.000000  0.433013  0.000000 )
               b(3) = (  0.000000  0.000000  0.295123 )

     PseudoPot. # 1 for Cu read from file:
     /home/549/hxw549/Short/pseudopotentials/Cu.pbe-n-van_ak.UPF
     MD5 check sum: 601f7c30f7467666bec936e0661ce3e1
     Pseudo is Ultrasoft + core correction, Zval = 11.0
     Generated by new atomic code, or converted to UPF format
     Using radial grid of  867 points,  6 beta functions with:
                l(1) =   0
                l(2) =   0
                l(3) =   1
                l(4) =   1
                l(5) =   2
                l(6) =   2
     Q(r) pseudized with  8 coefficients,  rinner =    1.400   1.400   1.400
                                                       1.400   1.400

     PseudoPot. # 2 for C  read from file:
     /home/549/hxw549/Short/pseudopotentials/C.star1s-pbe-mt_gipaw.UPF
     MD5 check sum: ef0cb3dee31bd9e4ba2a832a2c716264
     Pseudo is Norm-conserving, Zval =  5.0
     Generated by new atomic code, or converted to UPF format
     Using radial grid of 1073 points,  1 beta functions with:
                l(1) =   0

     PseudoPot. # 3 for C  read from file:
     /home/549/hxw549/Short/pseudopotentials/C.pbe-mt_gipaw.UPF
     MD5 check sum: 5ac2f21f2c440b14befe521540822c15
     Pseudo is Norm-conserving, Zval =  4.0
     Generated by new atomic code, or converted to UPF format
     Using radial grid of 1073 points,  1 beta functions with:
                l(1) =   0

     PseudoPot. # 4 for O  read from file:
     /home/549/hxw549/Short/pseudopotentials/O.pbe-van_gipaw.UPF
     MD5 check sum: 5ce2a047509d4f331db576c963e74b29
     Pseudo is Ultrasoft, Zval =  6.0
     Generated by new atomic code, or converted to UPF format
     Using radial grid of 1095 points,  4 beta functions with:
                l(1) =   0
                l(2) =   0
                l(3) =   1
                l(4) =   1
     Q(r) pseudized with 0 coefficients

     atomic species   valence    mass     pseudopotential
        Cu            11.00    63.54600     Cu( 1.00)
        C_h            5.00    12.01070     C ( 1.00)
        C              4.00    12.01070     C ( 1.00)
        O              6.00    15.99940     O ( 1.00)

     No symmetry found

   Cartesian axes

     site n.     atom                  positions (alat units)
         1           Cu  tau(   1) = (   0.0007746  -0.0017263   0.9974341  )
         2           Cu  tau(   2) = (   0.2507737   0.2258138   0.9973260  )
         3           Cu  tau(   3) = (   0.5008760  -0.0022365   0.9966779  )
         4           Cu  tau(   4) = (   0.7508471   0.2263841   0.9980016  )
         5           Cu  tau(   5) = (   0.0008392   0.4565406   0.9985792  )
         6           Cu  tau(   6) = (   0.2509427   0.6897855   0.9999657  )
         7           Cu  tau(   7) = (   0.5008379   0.4568514   0.9990575  )
         8           Cu  tau(   8) = (   0.7507194   0.6897031   0.9999838  )
         9           Cu  tau(   9) = (   0.0006685   0.9241902   1.0001491  )
        10           Cu  tau(  10) = (   0.2508199   1.1585893   0.9994315  )
        11           Cu  tau(  11) = (   0.5008540   0.9240586   1.0006399  )
        12           Cu  tau(  12) = (   0.7507433   1.1584370   0.9997064  )
        13           Cu  tau(  13) = (   0.0007724   1.3915619   0.9981007  )
        14           Cu  tau(  14) = (   0.2507485   1.6225299   0.9965829  )
        15           Cu  tau(  15) = (   0.5008122   1.3916616   0.9979961  )
        16           Cu  tau(  16) = (   0.7508119   1.6227756   0.9965609  )
        17           Cu  tau(  17) = (   0.0009883   1.8518082   0.9959401  )
        18           Cu  tau(  18) = (   0.2507237   2.0803995   0.9968330  )
        19           Cu  tau(  19) = (   0.5006394   1.8518782   0.9959625  )
        20           Cu  tau(  20) = (   0.7509541   2.0796587   0.9956860  )
        21           Cu  tau(  21) = (   0.0010190   0.2258085   1.2493909  )
        22           Cu  tau(  22) = (   0.2504775  -0.0015663   1.2511192  )
        23           Cu  tau(  23) = (   0.5007592   0.2244625   1.2474139  )
        24           Cu  tau(  24) = (   0.7511204  -0.0032534   1.2489893  )
        25           Cu  tau(  25) = (   0.0011318   0.6883266   1.2442935  )
        26           Cu  tau(  26) = (   0.2506634   0.4550101   1.2457739  )
        27           Cu  tau(  27) = (   0.5010434   0.6889459   1.2455869  )
        28           Cu  tau(  28) = (   0.7513247   0.4551755   1.2463317  )
        29           Cu  tau(  29) = (   0.0009417   1.1597158   1.2443880  )
        30           Cu  tau(  30) = (   0.2512312   0.9241298   1.2444880  )
        31           Cu  tau(  31) = (   0.5007499   1.1593901   1.2450686  )
        32           Cu  tau(  32) = (   0.7508296   0.9240397   1.2450130  )
        33           Cu  tau(  33) = (   0.0007793   1.6243336   1.2463775  )
        34           Cu  tau(  34) = (   0.2504282   1.3930798   1.2451551  )
        35           Cu  tau(  35) = (   0.5008090   1.6252398   1.2451280  )
        36           Cu  tau(  36) = (   0.7512192   1.3936504   1.2446248  )
        37           Cu  tau(  37) = (   0.0010877   2.0797516   1.2492188  )
        38           Cu  tau(  38) = (   0.2507223   1.8528469   1.2475014  )
        39           Cu  tau(  39) = (   0.5004398   2.0799192   1.2488390  )
        40           Cu  tau(  40) = (   0.7508180   1.8531203   1.2475507  )
        41           Cu  tau(  41) = (   0.0016658  -0.0022985   1.5045196  )
        42           Cu  tau(  42) = (   0.2503972   0.2291600   1.5050437  )
        43           Cu  tau(  43) = (   0.5000117  -0.0022562   1.5036487  )
        44           Cu  tau(  44) = (   0.7517889   0.2249026   1.5000298  )
        45           Cu  tau(  45) = (   0.0021806   0.4573907   1.4979107  )
        46           Cu  tau(  46) = (   0.2515336   0.6876551   1.4914913  )
        47           Cu  tau(  47) = (   0.5009200   0.4538841   1.4935295  )
        48           Cu  tau(  48) = (   0.7528141   0.6875879   1.4907110  )
        49           Cu  tau(  49) = (   0.0033450   0.9232828   1.4888842  )
        50           Cu  tau(  50) = (   0.2503503   1.1598614   1.4909692  )
        51           Cu  tau(  51) = (   0.5011269   0.9241898   1.4909779  )
        52           Cu  tau(  52) = (   0.7519249   1.1613568   1.4891627  )
        53           Cu  tau(  53) = (   0.0011131   1.3942307   1.4938872  )
        54           Cu  tau(  54) = (   0.2503927   1.6255964   1.4976503  )
        55           Cu  tau(  55) = (   0.5006234   1.3972544   1.4901219  )
        56           Cu  tau(  56) = (   0.7512735   1.6255407   1.4977139  )
        57           Cu  tau(  57) = (   0.0005637   1.8528289   1.5024635  )
        58           Cu  tau(  58) = (   0.2506219   2.0792198   1.5045906  )
        59           Cu  tau(  59) = (   0.5009250   1.8529925   1.5021785  )
        60           Cu  tau(  60) = (   0.7508082   2.0800280   1.5044375  )
[...]
       105           C   tau( 105) = (   0.3333424   0.1007420   2.4699883  )
       106           C   tau( 106) = (   0.3334363   0.2919992   2.5051734  )
       107           C   tau( 107) = (   0.5000066   0.0039836   2.4560683  )
       108           C   tau( 108) = (   0.4999469   0.3882212   2.5232037  )
       109           C   tau( 109) = (   0.6666958   0.1005847   2.4714172  )
       110           C   tau( 110) = (   0.6665358   0.2920099   2.5054082  )
       111           C   tau( 111) = (   0.8332310   0.0038601   2.4560699  )
       112           C   tau( 112) = (   0.8332509   0.3869252   2.5270840  )
       113           C   tau( 113) = (  -0.0001934   0.6737688   2.5777695  )
       114           C   tau( 114) = (  -0.0001856   0.8672651   2.5944491  )
       115           C   tau( 115) = (   0.1667594   0.5776866   2.5647008  )
       116           C   tau( 116) = (   0.1666435   0.9646073   2.6006922  )
       117           C   tau( 117) = (   0.3331110   0.6740993   2.5851705  )
       118           C   tau( 118) = (   0.3329710   0.8670446   2.6096596  )
       119           C   tau( 119) = (   0.4997466   0.5783682   2.5647021  )
       120           C_h tau( 120) = (   0.4999838   0.9653277   2.6122075  )
       121           C   tau( 121) = (   0.6664953   0.6742678   2.5820520  )
       122           C   tau( 122) = (   0.6663998   0.8673954   2.6037964  )
       123           C   tau( 123) = (   0.8331008   0.5776885   2.5641855  )
       124           C   tau( 124) = (   0.8332477   0.9647019   2.5973254  )
       125           C   tau( 125) = (   0.0000710   1.2537597   2.5618756  )
       126           C   tau( 126) = (   0.0001158   1.4445822   2.5252882  )
       127           C   tau( 127) = (   0.1668448   1.1579586   2.5811571  )
       128           C   tau( 128) = (   0.1667803   1.5400959   2.5059542  )
       129           C   tau( 129) = (   0.3335356   1.2546126   2.5695193  )
       130           C   tau( 130) = (   0.3335027   1.4444043   2.5269442  )
       131           C   tau( 131) = (   0.5000824   1.1587316   2.5904068  )
       132           C   tau( 132) = (   0.5000760   1.5393962   2.5038670  )
       133           C   tau( 133) = (   0.6665019   1.2546303   2.5687975  )
       134           C   tau( 134) = (   0.6665495   1.4443316   2.5269178  )
       135           C   tau( 135) = (   0.8334671   1.1581306   2.5807843  )
       136           C   tau( 136) = (   0.8333255   1.5402118   2.5066151  )
       137           C   tau( 137) = (   0.0000004   1.8277352   2.4539580  )
       138           C   tau( 138) = (  -0.0000015   2.0216453   2.4380816  )
       139           C   tau( 139) = (   0.1667979   1.7311224   2.4699837  )
       140           C   tau( 140) = (   0.1667608   2.1194820   2.4391038  )
       141           C   tau( 141) = (   0.3334638   1.8277274   2.4563194  )
       142           C   tau( 142) = (   0.3334790   2.0215976   2.4405198  )
       143           C   tau( 143) = (   0.4999842   1.7306087   2.4686680  )
       144           C   tau( 144) = (   0.5000116   2.1195299   2.4408306  )
       145           C   tau( 145) = (   0.6666293   1.8276257   2.4559927  )
       146           C   tau( 146) = (   0.6665863   2.0215855   2.4403438  )
       147           C   tau( 147) = (   0.8331931   1.7310805   2.4699489  )
       148           C   tau( 148) = (   0.8332380   2.1195278   2.4386194  )
       149           C   tau( 149) = (   0.3726381   0.8371666   2.1777400  )
       150           O   tau( 150) = (   0.4493068   0.9396855   2.2775618  )

     number of k points=     6  gaussian smearing, width (Ry)=  0.1000
                       cart. coord. in units 2pi/alat
        k(    1) = (   0.0000000   0.0000000   0.0000000), wk =   0.2500000
        k(    2) = (   0.0000000  -0.2165064   0.0000000), wk =   0.2500000
        k(    3) = (   0.2500000   0.0000000   0.0000000), wk =   0.5000000
        k(    4) = (   0.2500000  -0.2165064   0.0000000), wk =   0.5000000
        k(    5) = (  -0.5000000   0.0000000   0.0000000), wk =   0.2500000
        k(    6) = (  -0.5000000  -0.2165064   0.0000000), wk =   0.2500000

     Largest allocated arrays     est. size (Mb)     dimensions
     Largest temporary arrays     est. size (Mb)     dimensions

     Initial potential from superposition of free atoms
     Check: negative starting charge=   -0.001516

     starting charge 1276.31751, renormalised to 1302.00000

     negative rho (up, down):  1.546E-03 0.000E+00
     Starting wfc are 1296 randomized atomic wfcs

     Self-consistent Calculation

     iteration #  1     ecut=    80.00 Ry     beta=0.70
     Davidson diagonalization with overlap
     c_bands:  4 eigenvalues not converged
     c_bands:  3 eigenvalues not converged
     c_bands:  4 eigenvalues not converged
     c_bands:  2 eigenvalues not converged
     ethr =  1.00E-04,  avg # of iterations = 43.0

     negative rho (up, down):  2.524E+01 0.000E+00

     total energy              =   -9990.29200615 Ry
     Harris-Foulkes estimate   =  -18269.54295554 Ry
     estimated scf accuracy    <  211451.10236969 Ry

     iteration #  2     ecut=    80.00 Ry     beta=0.70
     Davidson diagonalization with overlap
     ethr =  1.00E-02,  avg # of iterations = 13.7

[...]

     iteration # 35     ecut=    80.00 Ry     beta=0.70
     Davidson diagonalization with overlap
     c_bands:  2 eigenvalues not converged
     ethr =  7.13E-08,  avg # of iterations = 12.5

[...]

     total energy              =  -12750.20863114 Ry
     Harris-Foulkes estimate   =  -12750.20863114 Ry
     estimated scf accuracy    <       0.00000001 Ry

     iteration # 45     ecut=    80.00 Ry     beta=0.70
     Davidson diagonalization with overlap
     ethr =  1.12E-12,  avg # of iterations =  2.3

     negative rho (up, down):  1.686E-03 0.000E+00

     End of self-consistent calculation

          k = 0.0000 0.0000 0.0000 (256287 PWs)   bands (ev):

   -20.3021 -16.8110 -15.8201 -15.6412 -15.0053 -14.6347 -14.3665 -14.2385
   -13.8413 -13.7893 -13.6933 -13.6766 -13.0847 -12.9414 -12.7484 -12.7359
   -12.6819 -12.6772 -11.3297 -11.1573 -11.1229 -11.0190 -10.9318  -9.9411
    -9.4444  -9.4000  -9.2450  -9.1777  -8.5672  -8.3970  -8.2533  -8.1744
    -7.6874  -7.5047  -7.4418  -7.2809  -7.1888  -7.1691  -7.1334  -7.1009
    -6.8880  -6.0146  -6.0048  -5.8809  -5.7690  -5.6601  -5.6040  -5.5631
    -5.5424  -5.5275  -5.3555  -5.3533  -4.9056  -4.7117  -4.5425  -4.5088
    -4.4319  -4.3794  -4.2801  -4.2144  -4.0862  -3.9766  -3.8592  -3.8308
    -3.7499  -3.6921  -3.6050  -3.5773  -3.4287  -3.3025  -3.2870  -3.2730
    -3.2603  -3.2100  -3.0976  -3.0920  -3.0680  -2.9319  -2.8870  -2.8854
    -2.8767  -2.8720  -2.8570  -2.7332  -2.7212  -2.6831  -2.5829  -2.5674
    -2.5458  -2.5117  -2.4783  -2.4505  -2.4366  -2.3894  -2.3700  -2.1839
    -2.1781  -2.1761  -2.1606  -2.1470  -2.0727  -2.0667  -2.0425  -2.0395
    -2.0373  -2.0343  -1.9201  -1.9172  -1.9160  -1.8949  -1.8930  -1.8708
    -1.7582  -1.7501  -1.7423  -1.6673  -1.6379  -1.6358  -1.6272  -1.6237
    -1.6193  -1.6101  -1.5958  -1.5944  -1.5769  -1.5420  -1.5353  -1.5269
    -1.5188  -1.5096  -1.4958  -1.4682  -1.4626  -1.4485  -1.4408  -1.4318
    -1.4266  -1.4189  -1.4099  -1.4063  -1.4006  -1.3561  -1.3338  -1.3264
    -1.3081  -1.2458  -1.2160  -1.1959  -1.1936  -1.1892  -1.1719  -1.1605
    -1.1574  -1.1533  -1.1379  -1.1110  -1.1008  -1.0860  -1.0857  -1.0619
    -1.0510  -0.9801  -0.9676  -0.9600  -0.9560  -0.9520  -0.9442  -0.9367
    -0.9337  -0.9311  -0.9297  -0.9221  -0.9110  -0.9068  -0.9031  -0.8943
    -0.8936  -0.8910  -0.8783  -0.8538  -0.8453  -0.8421  -0.8363  -0.8274
    -0.8180  -0.8162  -0.8150  -0.7877  -0.7698  -0.7642  -0.7586  -0.7544
    -0.7515  -0.7477  -0.7457  -0.7449  -0.7426  -0.7408  -0.7390  -0.7388
    -0.7347  -0.7342  -0.7316  -0.7188  -0.6666  -0.6150  -0.5900  -0.5870
    -0.5814  -0.5797  -0.5733  -0.5712  -0.5606  -0.5449  -0.5360  -0.5316
    -0.5282  -0.5243  -0.5178  -0.5164  -0.5048  -0.4954  -0.4763  -0.4683
    -0.4651  -0.4627  -0.4611  -0.4571  -0.4539  -0.4512  -0.4415  -0.4218
    -0.3977  -0.3908  -0.3835  -0.3762  -0.3605  -0.3544  -0.3466  -0.3377
    -0.3303  -0.3267  -0.3199  -0.3142  -0.3132  -0.3097  -0.3076  -0.3062
    -0.3046  -0.3030  -0.2999  -0.2995  -0.2936  -0.2867  -0.2826  -0.2797
    -0.2670  -0.2518  -0.2386  -0.2349  -0.2186  -0.2131  -0.1985  -0.1925
    -0.1896  -0.1836  -0.1816  -0.1788  -0.1749  -0.1690  -0.1679  -0.1633
    -0.1478  -0.1444  -0.1414  -0.1387  -0.1373  -0.1299  -0.1285  -0.1244
    -0.1207  -0.1145  -0.1083  -0.0986  -0.0949  -0.0929  -0.0848  -0.0841
    -0.0778  -0.0631  -0.0493  -0.0377  -0.0280  -0.0243  -0.0117  -0.0035
     0.0086   0.0112   0.0204   0.0272   0.0312   0.0379   0.0413   0.0438
     0.0485   0.0521   0.0601   0.0778   0.0832   0.0890   0.0954   0.1015
     0.1038   0.1061   0.1154   0.1268   0.1302   0.1356   0.1362   0.1377
     0.1444   0.1479   0.1503   0.1518   0.1581   0.1614   0.1664   0.1688
     0.1837   0.1873   0.1937   0.2017   0.2057   0.2074   0.2342   0.2375
     0.2405   0.2488   0.2552   0.2596   0.2671   0.2890   0.2948   0.2994
     0.3027   0.3111   0.3192   0.3316   0.3373   0.3520   0.3619   0.3687
     0.3735   0.3803   0.3832   0.3955   0.4096   0.4164   0.4233   0.4258
     0.4296   0.4490   0.4527   0.4534   0.4592   0.4695   0.4740   0.4797
     0.4837   0.4952   0.5006   0.5025   0.5139   0.5234   0.5276   0.5316
     0.5406   0.5468   0.5491   0.5570   0.5733   0.5776   0.5802   0.5843
     0.5872   0.5941   0.5992   0.6147   0.6195   0.6205   0.6248   0.6273
     0.6328   0.6374   0.6383   0.6423   0.6454   0.6459   0.6493   0.6543
     0.6592   0.6617   0.6684   0.6748   0.6840   0.6863   0.6941   0.7032
     0.7059   0.7136   0.7178   0.7279   0.7304   0.7335   0.7400   0.7434
     0.7449   0.7593   0.7610   0.7624   0.7663   0.7676   0.7710   0.7756
     0.7779   0.7812   0.7865   0.7919   0.7985   0.8061   0.8091   0.8132
     0.8202   0.8249   0.8254   0.8256   0.8271   0.8350   0.8405   0.8443
     0.8470   0.8536   0.8563   0.8611   0.8804   0.8852   0.8915   0.9001
     0.9074   0.9134   0.9252   0.9285   0.9322   0.9390   0.9419   0.9562
     0.9572   0.9607   0.9658   0.9701   0.9724   0.9795   0.9895   0.9950
     0.9958   1.0007   1.0051   1.0072   1.0121   1.0175   1.0207   1.0225
     1.0283   1.0372   1.0446   1.0555   1.0566   1.0662   1.0734   1.0773
[...]
     3.9238   3.9784   3.9956   4.0287   4.0670   4.0703   4.0820   4.0910
     4.0972   4.1232   4.1826   4.2115   4.2346   4.2730   4.6286   4.6996
     4.8397   5.0342   5.1570   5.1995   5.2303   5.2611   5.2777   5.3522
     5.4278   5.5028   5.5630   5.6641   5.6867   5.8916   6.0139   6.0350
     6.1395   6.2769   6.2842   6.4247   6.4435   6.4912   6.5169   6.5775
     6.6065   6.6483   6.7279   6.7332   6.8159   6.8419   6.9260   6.9729
     6.9981   7.0058   7.0365   7.0671   7.1135   7.1485   7.1594   7.2114
     7.3413   7.4387   7.4712   7.4953   7.5440   7.6646   7.7297   7.7720
     7.8120   7.9259   8.0456   8.0581   8.1392   8.1645   8.1844   8.1937
     8.2746   8.3224   8.3379   8.3918   8.4094   8.4271   8.4333   8.5029
     8.5459   8.6026   8.6203   8.6373   8.6508   8.6739   8.7541   8.7992
     8.8042   8.8413   8.8463   8.8609   8.8919   8.9147   9.0096   9.0542
     9.0717   9.1203   9.1688   9.2125   9.2786   9.3651   9.4158   9.4373
     9.4855   9.4963   9.5508   9.6289   9.6503   9.7155   9.7618   9.9166
     9.9646  10.0222  10.1200  10.1304  10.1545

[...]

          k = 0.2500-0.2165 0.0000 (256316 PWs)   bands (ev):

[...]

          k =-0.5000 0.0000 0.0000 (256496 PWs)   bands (ev):

[...]

          k =-0.5000-0.2165 0.0000 (256328 PWs)   bands (ev):

   -20.3020 -16.6951 -15.5295 -15.3948 -15.3712 -14.9562 -14.8008 -14.7271
   -14.6954 -13.6658 -13.4491 -13.3188 -13.2861 -12.2598 -12.0023 -11.6008
   -11.5683 -11.5516 -11.4169 -11.3285 -11.2679 -11.1265 -11.1127 -11.0116
   -10.9958  -9.6485  -9.6303  -9.3860  -9.3443  -8.8970  -8.5684  -8.4556
    -8.4204  -7.9339  -7.9035  -7.7043  -7.6879  -6.8791  -6.2408  -5.9237
    -5.8445  -5.6576  -5.5335  -5.2955  -5.0784  -5.0576  -5.0459  -5.0451
    -5.0167  -4.9645  -4.9581  -4.7780  -4.6701  -4.5686  -4.5614  -4.3706
    -4.0936  -4.0727  -4.0685  -4.0660  -4.0514  -4.0249  -4.0195  -4.0086
    -3.9716  -3.8562  -3.8132  -3.7809  -3.7537  -3.6640  -3.5614  -3.5295
    -3.5071  -3.4595  -3.3985  -3.3811  -3.3777  -3.3399  -3.3299  -3.3145
    -3.2683  -3.1430  -3.1234  -3.1087  -3.0260  -2.8424  -2.6846  -2.6675
    -2.6549  -2.4731  -2.4699  -2.4624  -2.4573  -2.4564  -2.4458  -2.4381
    -2.3515  -2.3300  -2.2816  -2.1420  -2.0841  -1.9700  -1.9687  -1.9647
    -1.9616  -1.9599  -1.9509  -1.9372  -1.8694  -1.8257  -1.7727  -1.7356
    -1.7045  -1.6882  -1.6879  -1.6822  -1.6717  -1.5113  -1.4918  -1.4883
    -1.4739  -1.4208  -1.4109  -1.3921  -1.3891  -1.3860  -1.3843  -1.3821
    -1.3783  -1.3379  -1.3336  -1.3325  -1.3284  -1.3086  -1.2884  -1.2840
    -1.2738  -1.2729  -1.2710  -1.2680  -1.2673  -1.2616  -1.2574  -1.2513
    -1.2472  -1.2447  -1.2043  -1.2008  -1.1915  -1.1912  -1.1839  -1.1739
    -1.1673  -1.1183  -1.1047  -1.0976  -1.0965  -1.0924  -1.0801  -1.0795
    -1.0782  -1.0649  -1.0534  -1.0480  -1.0468  -1.0455  -1.0409  -1.0396
    -1.0282  -1.0220  -1.0217  -1.0122  -1.0095  -1.0015  -0.9840  -0.9765
    -0.9681  -0.9663  -0.9627  -0.9594  -0.9515  -0.9460  -0.9379  -0.9353
    -0.9327  -0.9282  -0.9261  -0.9197  -0.9155  -0.9128  -0.8116  -0.8083
    -0.7973  -0.7908  -0.7727  -0.7701  -0.7641  -0.7618  -0.7483  -0.7481
    -0.7477  -0.6979  -0.6878  -0.6817  -0.6767  -0.6707  -0.6666  -0.6614
    -0.6596  -0.6533  -0.6532  -0.6501  -0.6473  -0.6069  -0.6055  -0.5990
    -0.5957  -0.5944  -0.5850  -0.5829  -0.5764  -0.5740  -0.5688  -0.5482
    -0.5400  -0.5084  -0.4790  -0.4628  -0.4544  -0.4505  -0.4448  -0.4393
    -0.4346  -0.4251  -0.4116  -0.3965  -0.3931  -0.3723  -0.3575  -0.3554
    -0.3507  -0.3454  -0.3388  -0.3287  -0.3243  -0.3188  -0.3117  -0.3012
    -0.2977  -0.2919  -0.2855  -0.2822  -0.2734  -0.2470  -0.2254  -0.2140
    -0.2095  -0.2079  -0.1890  -0.1842  -0.1712  -0.1617  -0.1597  -0.1564
    -0.1544  -0.1510  -0.1492  -0.1427  -0.1355  -0.1211  -0.0937  -0.0867
    -0.0813  -0.0790  -0.0699  -0.0665  -0.0652  -0.0609  -0.0578  -0.0564
    -0.0545  -0.0451  -0.0359  -0.0346  -0.0336  -0.0275  -0.0245  -0.0161
    -0.0148  -0.0103  -0.0057  -0.0006   0.0069   0.0138   0.0241   0.0299
     0.0526   0.0577   0.0658   0.0715   0.0793   0.1097   0.1159   0.1265
     0.1340   0.1391   0.1432   0.1461   0.1479   0.1488   0.1544   0.1621
     0.1668   0.1711   0.1743   0.1777   0.1822   0.1832   0.1885   0.1935
     0.1983   0.2013   0.2040   0.2046   0.2074   0.2081   0.2100   0.2120
     0.2155   0.2187   0.2228   0.2277   0.2365   0.2427   0.2509   0.2551
     0.2617   0.2663   0.2749   0.2823   0.2889   0.2947   0.3059   0.3107
     0.3125   0.3197   0.3231   0.3369   0.3413   0.3466   0.3492   0.3815
     0.3939   0.4079   0.4097   0.4170   0.4211   0.4356   0.4446   0.4490
     0.4503   0.4606   0.4621   0.4685   0.4731   0.4785   0.4799   0.4839
     0.4883   0.4930   0.5001   0.5032   0.5150   0.5239   0.5301   0.5348
     0.5405   0.5435   0.5519   0.5522   0.5541   0.5570   0.5580   0.5625
     0.5665   0.5721   0.5752   0.5823   0.5865   0.5894   0.5932   0.6033
     0.6101   0.6150   0.6221   0.6292   0.6341   0.6370   0.6393   0.6437
     0.6481   0.6530   0.6581   0.6620   0.6646   0.6675   0.6745   0.6795
     0.6827   0.6880   0.6884   0.6940   0.6959   0.6977   0.7052   0.7073
     0.7102   0.7125   0.7157   0.7228   0.7250   0.7329   0.7463   0.7516
     0.7548   0.7627   0.7647   0.7675   0.7708   0.7799   0.7814   0.7860
     0.7901   0.7972   0.7981   0.8063   0.8097   0.8137   0.8186   0.8204
     0.8218   0.8236   0.8281   0.8305   0.8325   0.8399   0.8491   0.8639
     0.8646   0.8735   0.8897   0.8944   0.8978   0.8988   0.9071   0.9202
     0.9272   0.9303   0.9374   0.9397   0.9512   0.9519   0.9543   0.9571
     0.9681   0.9704   0.9816   0.9890   1.0011   1.0084   1.0092   1.0138
     1.0204   1.0211   1.0294   1.0352   1.0430   1.0531   1.0609   1.0651
[...]
     4.2372   4.2796   4.3026   4.3102   4.3511   4.4051   4.4877   4.5088
     4.5764   4.6511   4.6961   4.7087   4.7464   4.7668   4.9679   5.0463
     5.0938   5.1205   5.1264   5.1727   5.2019   5.2070   5.2256   5.2401
     5.2510   5.2746   5.2880   5.3094   5.3515   5.4374   5.4586   5.4721
     5.5066   5.6700   5.6766   5.7147   5.7741   5.7809   5.8011   5.8166
     5.8297   5.8646   5.9748   5.9803   6.0201   6.2430   6.3873   6.7723
     6.7982   6.9950   7.0169   7.0731   7.0774   7.0971   7.1054   7.1270
     7.1522   7.1742   7.1959   7.2133   7.2368   7.3253   7.3449   7.4153
     7.4338   7.4576   7.4840   7.5131   7.5248   7.6520   7.7809   7.8170
     7.9354   7.9485   8.0735   8.1099   8.1725   8.1863   8.2295   8.2589
     8.2610   8.3092   8.3775   8.3813   8.3899   8.4384   8.7109   8.8825
     8.9067   8.9238   8.9404   8.9576   8.9840   8.9934   9.0016   9.0258
     9.0458   9.1302   9.1341   9.1459   9.1553   9.1605   9.2591   9.3276
     9.3337   9.3419   9.3472   9.4426   9.4530   9.4625   9.4663   9.5129
     9.5215   9.6743   9.8106   9.8835   9.9970

     the Fermi energy is     3.3974 ev

!    total energy              =  -12750.20863115 Ry
     Harris-Foulkes estimate   =  -12750.20863114 Ry
     estimated scf accuracy    <          3.8E-09 Ry

     The total energy is the sum of the following terms:

     one-electron contribution = -100068.90570411 Ry
     hartree contribution      =   51405.22330801 Ry
     xc contribution           =   -4456.64279035 Ry
     ewald contribution        =   40376.29208330 Ry
     Dispersion Correction     =      -2.79637894 Ry
     smearing contrib. (-TS)   =      -3.37914906 Ry

     convergence has been achieved in  45 iterations

     Writing output data file gc.save

     General routines

     Parallel routines

   This run was terminated on:   9:42:11   2Feb2018

   JOB DONE.