     Program PWSCF v.5.4.0 starts on 16Mar2017 at 18: 9:36

     Current dimensions of program PWSCF are:
     Max number of different atomic species (ntypx) = 10
     Max number of k-points (npk) =  40000
     Max angular momentum in pseudopotentials (lmaxx) =  3

     Parameters for Dispersion Correction:
       atom      VdW radius       C_6

        C          2.744         60.710

     bravais-lattice index     =            0
     lattice parameter (alat)  =       4.6695  a.u.
     unit-cell volume          =     356.8479 (a.u.)^3
     number of atoms/cell      =            2
     number of atomic types    =            1
     number of electrons       =         8.00
     number of Kohn-Sham states=            8
     kinetic-energy cutoff     =      80.0000  Ry
     charge density cutoff     =     320.0000  Ry
     convergence threshold     =      1.0E-10
     mixing beta               =       0.7000
     number of iterations used =            8  local-TF  mixing
     Exchange-correlation      =  SLA  PW   PBX  PBC ( 1  4  3  4 0 0)

     celldm(1)=   4.669513  celldm(2)=   0.000000  celldm(3)=   0.000000
     celldm(4)=   0.000000  celldm(5)=   0.000000  celldm(6)=   0.000000

     crystal axes: (cart. coord. in units of alat)
               a(1) = (   1.000000   0.000000   0.000000 )
               a(2) = (  -0.500000   0.866046   0.000000 )
               a(3) = (   0.000000   0.000000   4.046945 )

     reciprocal axes: (cart. coord. in units 2 pi/alat)
               b(1) = (  1.000000  0.577336  0.000000 )
               b(2) = (  0.000000  1.154673  0.000000 )
               b(3) = (  0.000000  0.000000  0.247100 )

     PseudoPot. # 1 for C  read from file:
     /home/549/hxw549/Short/pseudopotentials/C.pbe-mt_gipaw.UPF
     MD5 check sum: 5ac2f21f2c440b14befe521540822c15
     Pseudo is Norm-conserving, Zval =  4.0
     Generated by new atomic code, or converted to UPF format
     Using radial grid of 1073 points,  1 beta functions with:
                l(1) =   0

     atomic species   valence    mass     pseudopotential
        C              4.00    12.01070     C ( 1.00)

      8 Sym. Ops., with inversion, found

                                    s                        frac. trans.

      isym =  1     identity

 cryst.   s( 1) = (     1          0          0      )
                  (     0          1          0      )
                  (     0          0          1      )

 cart.    s( 1) = (  1.0000000  0.0000000  0.0000000 )
                  (  0.0000000  1.0000000  0.0000000 )
                  (  0.0000000  0.0000000  1.0000000 )

      isym =  2     180 deg rotation - cart. axis [0,0,1]

[...]

      isym =  4     180 deg rotation - cart. axis [1,0,0]

[...]

      isym =  5     inversion

[...]

      isym =  6     inv. 180 deg rotation - cart. axis [0,0,1]

[...]

      isym =  8     inv. 180 deg rotation - cart. axis [1,0,0]

 cryst.   s( 8) = (    -1          0          0      )
                  (     1          1          0      )
                  (     0          0          1      )

 cart.    s( 8) = ( -1.0000000  0.0000000  0.0000000 )
                  (  0.0000000  1.0000000  0.0000000 )
                  (  0.0000000  0.0000000  1.0000000 )

   Cartesian axes

     site n.     atom                  positions (alat units)
         1           C   tau(   1) = (   0.5000000   0.2886820   2.0234723  )
         2           C   tau(   2) = (  -0.0000000   0.5773641   2.0234723  )

   Crystallographic axes

     site n.     atom                  positions (cryst. coord.)
         1           C   tau(   1) = (  0.6666667  0.3333333  0.5000000  )
         2           C   tau(   2) = (  0.3333333  0.6666667  0.5000000  )

     number of k points=    21  gaussian smearing, width (Ry)=  0.1000
                       cart. coord. in units 2pi/alat
        k(    1) = (   0.0000000   0.0000000   0.0000000), wk =   0.0312500
        k(    2) = (   0.0000000   0.1443341   0.0000000), wk =   0.0625000
        k(    3) = (   0.0000000   0.2886682   0.0000000), wk =   0.0625000
        k(    4) = (   0.0000000   0.4330023   0.0000000), wk =   0.0625000
        k(    5) = (   0.0000000  -0.5773364   0.0000000), wk =   0.0312500
        k(    6) = (   0.1250000   0.0721671   0.0000000), wk =   0.1250000
        k(    7) = (   0.1250000   0.2165012   0.0000000), wk =   0.1250000
        k(    8) = (   0.1250000   0.3608353   0.0000000), wk =   0.1250000
        k(    9) = (   0.1250000   0.5051694   0.0000000), wk =   0.1250000
        k(   10) = (   0.2500000   0.1443341   0.0000000), wk =   0.1250000
        k(   11) = (   0.2500000   0.2886682   0.0000000), wk =   0.1250000
        k(   12) = (   0.2500000   0.4330023   0.0000000), wk =   0.1250000
        k(   13) = (   0.2500000   0.5773364   0.0000000), wk =   0.0625000
        k(   14) = (   0.2500000   0.0000000   0.0000000), wk =   0.0625000
        k(   15) = (   0.3750000   0.2165012   0.0000000), wk =   0.1250000
        k(   16) = (   0.3750000   0.3608353   0.0000000), wk =   0.1250000
        k(   17) = (   0.3750000   0.5051694   0.0000000), wk =   0.1250000
        k(   18) = (   0.3750000  -0.0721671   0.0000000), wk =   0.1250000
        k(   19) = (  -0.5000000  -0.2886682   0.0000000), wk =   0.0625000
        k(   20) = (  -0.5000000  -0.1443341   0.0000000), wk =   0.1250000
        k(   21) = (  -0.5000000   0.0000000   0.0000000), wk =   0.0625000

                       cryst. coord.
        k(    1) = (   0.0000000   0.0000000   0.0000000), wk =   0.0312500
        k(    2) = (   0.0000000   0.1250000   0.0000000), wk =   0.0625000
        k(    3) = (   0.0000000   0.2500000   0.0000000), wk =   0.0625000
        k(    4) = (   0.0000000   0.3750000   0.0000000), wk =   0.0625000
        k(    5) = (   0.0000000  -0.5000000   0.0000000), wk =   0.0312500
        k(    6) = (   0.1250000   0.0000000   0.0000000), wk =   0.1250000
        k(    7) = (   0.1250000   0.1250000   0.0000000), wk =   0.1250000
        k(    8) = (   0.1250000   0.2500000   0.0000000), wk =   0.1250000
        k(    9) = (   0.1250000   0.3750000   0.0000000), wk =   0.1250000
        k(   10) = (   0.2500000   0.0000000   0.0000000), wk =   0.1250000
        k(   11) = (   0.2500000   0.1250000   0.0000000), wk =   0.1250000
        k(   12) = (   0.2500000   0.2500000   0.0000000), wk =   0.1250000
        k(   13) = (   0.2500000   0.3750000   0.0000000), wk =   0.0625000
        k(   14) = (   0.2500000  -0.1250000   0.0000000), wk =   0.0625000
        k(   15) = (   0.3750000   0.0000000   0.0000000), wk =   0.1250000
        k(   16) = (   0.3750000   0.1250000   0.0000000), wk =   0.1250000
        k(   17) = (   0.3750000   0.2500000   0.0000000), wk =   0.1250000
        k(   18) = (   0.3750000  -0.2500000   0.0000000), wk =   0.1250000
        k(   19) = (  -0.5000000   0.0000000   0.0000000), wk =   0.0625000
        k(   20) = (  -0.5000000   0.1250000   0.0000000), wk =   0.1250000
        k(   21) = (  -0.5000000   0.2500000   0.0000000), wk =   0.0625000

     Largest allocated arrays     est. size (Mb)     dimensions
     Largest temporary arrays     est. size (Mb)     dimensions

     Initial potential from superposition of free atoms

     starting charge    7.00000, renormalised to    8.00000

     negative rho (up, down):  1.155E-07 0.000E+00
     Starting wfc are   16 randomized atomic wfcs

     Self-consistent Calculation

     iteration #  1     ecut=    80.00 Ry     beta=0.70
     Davidson diagonalization with overlap
     ethr =  1.00E-04,  avg # of iterations =  9.9

     total energy              =     -22.82366510 Ry
     Harris-Foulkes estimate   =     -22.83215195 Ry
     estimated scf accuracy    <       0.04623156 Ry

[...]

     total energy              =     -22.82219866 Ry
     Harris-Foulkes estimate   =     -22.82219866 Ry
     estimated scf accuracy    <          3.3E-09 Ry

     iteration #  9     ecut=    80.00 Ry     beta=0.70
     Davidson diagonalization with overlap
     ethr =  4.16E-11,  avg # of iterations =  2.2

     End of self-consistent calculation

          k = 0.0000 0.0000 0.0000 (  4325 PWs)   bands (ev):

   -19.9067  -8.0529  -3.5706  -3.5705   2.6575   4.2337   5.4830   7.8310

     occupation numbers
     1.0000   1.0000   0.9991   0.9991   0.0004   0.0000   0.0000   0.0000

[...]

          k = 0.3750-0.0722 0.0000 (  4306 PWs)   bands (ev):

[...]

          k =-0.5000-0.2887 0.0000 (  4286 PWs)   bands (ev):

[...]

          k =-0.5000 0.0000 0.0000 (  4311 PWs)   bands (ev):

   -15.6341 -10.9637  -9.4098  -3.2094   2.3003   8.6201   9.7222  11.3170

     occupation numbers
     1.0000   1.0000   1.0000   0.9970   0.0014   0.0000   0.0000   0.0000

     the Fermi energy is    -0.5654 ev

!    total energy              =     -22.82219866 Ry
     Harris-Foulkes estimate   =     -22.82219866 Ry
     estimated scf accuracy    <          5.7E-11 Ry

     The total energy is the sum of the following terms:

     one-electron contribution =     -90.34098166 Ry
     hartree contribution      =      46.91312549 Ry
     xc contribution           =      -7.00457810 Ry
     ewald contribution        =      27.62648213 Ry
     Dispersion Correction     =      -0.00808275 Ry
     smearing contrib. (-TS)   =      -0.00816377 Ry

     convergence has been achieved in   9 iterations

     Writing output data file graphene.save

     General routines

     Parallel routines

   This run was terminated on:  18: 9:46  16Mar2017

   JOB DONE.