     Program PWSCF v.5.4.0 starts on 14Sep2017 at 19: 6:58

     Current dimensions of program PWSCF are:
     Max number of different atomic species (ntypx) = 10
     Max number of k-points (npk) =  40000
     Max angular momentum in pseudopotentials (lmaxx) =  3
     WARNING: atomic wfc #  2 for atom type 4 has zero norm
     WARNING: atomic wfc #  4 for atom type 4 has zero norm
     WARNING: atomic wfc #  5 for atom type 4 has zero norm

     Parameters for Dispersion Correction:
       atom      VdW radius       C_6

        Cu         2.952        374.666
        C_h        2.744         60.710
        C          2.744         60.710
        O          2.536         24.284
        H          1.892          4.857

     bravais-lattice index     =            0
     lattice parameter (alat)  =      13.9425  a.u.
     unit-cell volume          =   21209.0878 (a.u.)^3
     number of atoms/cell      =          151
     number of atomic types    =            5
     number of electrons       =      1308.00
     number of Kohn-Sham states=          785
     kinetic-energy cutoff     =      80.0000  Ry
     charge density cutoff     =     320.0000  Ry
     convergence threshold     =      1.0E-08
     mixing beta               =       0.7000
     number of iterations used =            8  local-TF  mixing
     Exchange-correlation      =  SLA  PW   PBE  PBE ( 1  4  3  4 0 0)

     celldm(1)=  13.942539  celldm(2)=   0.000000  celldm(3)=   0.000000
     celldm(4)=   0.000000  celldm(5)=   0.000000  celldm(6)=   0.000000

     crystal axes: (cart. coord. in units of alat)
               a(1) = (   1.000000   0.000000   0.000000 )
               a(2) = (   0.000000   2.309401   0.000000 )
               a(3) = (   0.000000   0.000000   3.388418 )

     reciprocal axes: (cart. coord. in units 2 pi/alat)
               b(1) = (  1.000000  0.000000  0.000000 )
               b(2) = (  0.000000  0.433013  0.000000 )
               b(3) = (  0.000000  0.000000  0.295123 )

     PseudoPot. # 1 for Cu read from file:
     /home/549/hxw549/Short/pseudopotentials/Cu.pbe-n-van_ak.UPF
     MD5 check sum: 601f7c30f7467666bec936e0661ce3e1
     Pseudo is Ultrasoft + core correction, Zval = 11.0
     Generated by new atomic code, or converted to UPF format
     Using radial grid of  867 points,  6 beta functions with:
                l(1) =   0
                l(2) =   0
                l(3) =   1
                l(4) =   1
                l(5) =   2
                l(6) =   2
     Q(r) pseudized with  8 coefficients,  rinner =    1.400   1.400   1.400
                                                       1.400   1.400

     PseudoPot. # 2 for C  read from file:
     /home/549/hxw549/Short/pseudopotentials/C.star1s-pbe-mt_gipaw.UPF
     MD5 check sum: ef0cb3dee31bd9e4ba2a832a2c716264
     Pseudo is Norm-conserving, Zval =  5.0
     Generated by new atomic code, or converted to UPF format
     Using radial grid of 1073 points,  1 beta functions with:
                l(1) =   0

     PseudoPot. # 3 for C  read from file:
     /home/549/hxw549/Short/pseudopotentials/C.pbe-mt_gipaw.UPF
     MD5 check sum: 5ac2f21f2c440b14befe521540822c15
     Pseudo is Norm-conserving, Zval =  4.0
     Generated by new atomic code, or converted to UPF format
     Using radial grid of 1073 points,  1 beta functions with:
                l(1) =   0

     PseudoPot. # 4 for O  read from file:
     /home/549/hxw549/Short/pseudopotentials/O.pbe-van_gipaw.UPF
     MD5 check sum: 5ce2a047509d4f331db576c963e74b29
     Pseudo is Ultrasoft, Zval =  6.0
     Generated by new atomic code, or converted to UPF format
     Using radial grid of 1095 points,  4 beta functions with:
                l(1) =   0
                l(2) =   0
                l(3) =   1
                l(4) =   1
     Q(r) pseudized with 0 coefficients

     PseudoPot. # 5 for H  read from file:
     /home/549/hxw549/Short/pseudopotentials/H.pbe-van_ak.UPF
     MD5 check sum: 077eb6d537518a38cb46c6de387227b7
     Pseudo is Ultrasoft, Zval =  1.0
     Generated by new atomic code, or converted to UPF format
     Using radial grid of  615 points,  1 beta functions with:
                l(1) =   0
     Q(r) pseudized with  8 coefficients,  rinner =    0.800

     atomic species   valence    mass     pseudopotential
        Cu            11.00    63.54600     Cu( 1.00)
        C_h            5.00    12.01070     C ( 1.00)
        C              4.00    12.01070     C ( 1.00)
        O              6.00    15.99940     O ( 1.00)
        H              1.00     1.00783     H ( 1.00)

     No symmetry found

   Cartesian axes

     site n.     atom                  positions (alat units)
         1           Cu  tau(   1) = (   0.0000828  -0.0019274   0.9979025  )
         2           Cu  tau(   2) = (   0.2500781   0.2289897   0.9982687  )
         3           Cu  tau(   3) = (   0.5000682  -0.0019353   0.9979147  )
         4           Cu  tau(   4) = (   0.7500726   0.2289671   0.9982487  )
         5           Cu  tau(   5) = (   0.0000745   0.4597415   0.9986208  )
         6           Cu  tau(   6) = (   0.2500564   0.6906151   0.9987210  )
         7           Cu  tau(   7) = (   0.5000735   0.4597912   0.9985815  )
         8           Cu  tau(   8) = (   0.7500881   0.6906173   0.9987207  )
         9           Cu  tau(   9) = (   0.0000709   0.9216754   0.9986533  )
        10           Cu  tau(  10) = (   0.2500897   1.1527592   0.9985937  )
        11           Cu  tau(  11) = (   0.5000704   0.9216278   0.9986465  )
        12           Cu  tau(  12) = (   0.7500496   1.1527685   0.9985919  )
        13           Cu  tau(  13) = (   0.0000690   1.3837754   0.9985110  )
        14           Cu  tau(  14) = (   0.2500777   1.6146562   0.9983520  )
        15           Cu  tau(  15) = (   0.5000695   1.3837808   0.9985989  )
        16           Cu  tau(  16) = (   0.7500633   1.6146375   0.9983691  )
        17           Cu  tau(  17) = (   0.0000685   1.8454873   0.9980042  )
        18           Cu  tau(  18) = (   0.2500760   2.0764498   0.9977993  )
        19           Cu  tau(  19) = (   0.5000758   1.8455084   0.9980245  )
        20           Cu  tau(  20) = (   0.7500720   2.0764768   0.9977886  )
        21           Cu  tau(  21) = (   0.0000738   0.2285534   1.2467489  )
        22           Cu  tau(  22) = (   0.2500671  -0.0022340   1.2463929  )
        23           Cu  tau(  23) = (   0.5000700   0.2285866   1.2466810  )
        24           Cu  tau(  24) = (   0.7500765  -0.0022282   1.2464015  )
        25           Cu  tau(  25) = (   0.0000761   0.6907184   1.2469375  )
        26           Cu  tau(  26) = (   0.2500681   0.4595989   1.2469722  )
        27           Cu  tau(  27) = (   0.5000688   0.6906737   1.2469481  )
        28           Cu  tau(  28) = (   0.7500757   0.4595797   1.2469379  )
        29           Cu  tau(  29) = (   0.0000734   1.1527566   1.2467851  )
        30           Cu  tau(  30) = (   0.2500637   0.9217202   1.2468203  )
        31           Cu  tau(  31) = (   0.5000719   1.1527096   1.2468145  )
        32           Cu  tau(  32) = (   0.7500809   0.9217264   1.2468082  )
        33           Cu  tau(  33) = (   0.0000721   1.6148370   1.2467556  )
        34           Cu  tau(  34) = (   0.2500731   1.3838112   1.2468268  )
        35           Cu  tau(  35) = (   0.5000710   1.6148963   1.2468044  )
        36           Cu  tau(  36) = (   0.7500707   1.3837924   1.2468503  )
        37           Cu  tau(  37) = (   0.0000734   2.0765072   1.2462746  )
        38           Cu  tau(  38) = (   0.2500633   1.8457549   1.2465399  )
        39           Cu  tau(  39) = (   0.5000691   2.0764918   1.2462790  )
        40           Cu  tau(  40) = (   0.7500793   1.8457810   1.2465066  )
        41           Cu  tau(  41) = (   0.0000564  -0.0025714   1.4963399  )
        42           Cu  tau(  42) = (   0.2500847   0.2283300   1.4961868  )
        43           Cu  tau(  43) = (   0.5000704  -0.0024996   1.4962480  )
        44           Cu  tau(  44) = (   0.7500375   0.2283570   1.4961858  )
        45           Cu  tau(  45) = (   0.0000657   0.4596578   1.4961555  )
        46           Cu  tau(  46) = (   0.2500941   0.6908920   1.4964046  )
        47           Cu  tau(  47) = (   0.5000606   0.4596636   1.4962581  )
        48           Cu  tau(  48) = (   0.7500438   0.6908603   1.4963475  )
        49           Cu  tau(  49) = (   0.0000765   0.9218163   1.4964784  )
        50           Cu  tau(  50) = (   0.2500394   1.1525801   1.4963243  )
        51           Cu  tau(  51) = (   0.5000729   0.9217131   1.4963912  )
        52           Cu  tau(  52) = (   0.7501214   1.1525480   1.4963411  )
        53           Cu  tau(  53) = (   0.0000810   1.3837111   1.4962439  )
        54           Cu  tau(  54) = (   0.2500327   1.6149441   1.4962309  )
        55           Cu  tau(  55) = (   0.5000772   1.3836210   1.4961482  )
        56           Cu  tau(  56) = (   0.7501146   1.6149978   1.4961677  )
        57           Cu  tau(  57) = (   0.0000854   1.8459444   1.4961889  )
        58           Cu  tau(  58) = (   0.2500520   2.0764731   1.4963265  )
        59           Cu  tau(  59) = (   0.5000544   1.8460216   1.4962978  )
        60           Cu  tau(  60) = (   0.7500828   2.0764571   1.4963282  )
[...]
       134           C   tau( 134) = (   0.6670754   1.4484646   2.3880658  )
       135           C   tau( 135) = (   0.8339059   1.1597231   2.3855699  )
       136           C   tau( 136) = (   0.8337142   1.5446462   2.3852464  )
       137           C   tau( 137) = (   0.0006078   1.8334050   2.3846746  )
       138           C   tau( 138) = (   0.0006196   2.0258385   2.3878528  )
       139           C   tau( 139) = (   0.1674732   1.7370744   2.3858592  )
       140           C   tau( 140) = (   0.1672100   2.1220313   2.3881529  )
       141           C   tau( 141) = (   0.3340050   1.8332630   2.3883297  )
       142           C   tau( 142) = (   0.3340274   2.0257115   2.3879053  )
       143           C   tau( 143) = (   0.5005899   1.7370225   2.3894614  )
       144           C   tau( 144) = (   0.5006184   2.1219085   2.3882968  )
       145           C   tau( 145) = (   0.6671992   1.8332548   2.3882872  )
       146           C   tau( 146) = (   0.6671889   2.0257026   2.3877783  )
       147           C   tau( 147) = (   0.8337337   1.7370904   2.3857631  )
       148           C   tau( 148) = (   0.8340135   2.1220210   2.3880016  )
       149           C_h tau( 149) = (   0.3729471   1.0771384   2.9742109  )
       150           O   tau( 150) = (   0.3729471   1.0771384   2.8132802  )
       151           O   tau( 151) = (   0.3729471   1.0771384   3.1351538  )

     number of k points=     6  gaussian smearing, width (Ry)=  0.1000
                       cart. coord. in units 2pi/alat
        k(    1) = (   0.0000000   0.0000000   0.0000000), wk =   0.2500000
        k(    2) = (   0.0000000  -0.2165064   0.0000000), wk =   0.2500000
        k(    3) = (   0.2500000   0.0000000   0.0000000), wk =   0.5000000
        k(    4) = (   0.2500000  -0.2165064   0.0000000), wk =   0.5000000
        k(    5) = (  -0.5000000   0.0000000   0.0000000), wk =   0.2500000
        k(    6) = (  -0.5000000  -0.2165064   0.0000000), wk =   0.2500000

     Largest allocated arrays     est. size (Mb)     dimensions
     Largest temporary arrays     est. size (Mb)     dimensions

     Initial potential from superposition of free atoms
     Check: negative starting charge=   -0.001391

     starting charge 1282.31751, renormalised to 1308.00000

     negative rho (up, down):  1.419E-03 0.000E+00
     Starting wfc are 1300 randomized atomic wfcs

     Self-consistent Calculation

     iteration #  1     ecut=    80.00 Ry     beta=0.70
     Davidson diagonalization with overlap
     ethr =  1.00E-04,  avg # of iterations = 21.7

     negative rho (up, down):  2.898E+01 0.000E+00

     total energy              =   -9576.55598331 Ry
     Harris-Foulkes estimate   =  -17431.56587432 Ry
     estimated scf accuracy    <  184677.39822183 Ry

[...]

     iteration # 34     ecut=    80.00 Ry     beta=0.70
     Davidson diagonalization with overlap
     c_bands:  1 eigenvalues not converged
     ethr =  1.39E-06,  avg # of iterations = 12.8

[...]

     iteration # 40     ecut=    80.00 Ry     beta=0.70
     Davidson diagonalization with overlap
     c_bands:  1 eigenvalues not converged
     c_bands:  1 eigenvalues not converged
     ethr =  2.24E-08,  avg # of iterations = 12.3

[...]

     total energy              =  -12782.00430420 Ry
     Harris-Foulkes estimate   =  -12782.00430420 Ry
     estimated scf accuracy    <       0.00000001 Ry

     iteration # 49     ecut=    80.00 Ry     beta=0.70
     Davidson diagonalization with overlap
     ethr =  8.16E-13,  avg # of iterations =  2.0

     negative rho (up, down):  1.597E-03 0.000E+00

     End of self-consistent calculation

          k = 0.0000 0.0000 0.0000 (256287 PWs)   bands (ev):

   -23.4323 -22.2016 -16.1746 -15.8029 -15.8015 -14.6963 -14.6957 -14.2119
   -14.2098 -13.8499 -13.8482 -13.8477 -13.8463 -12.8964 -12.8952 -12.7805
   -12.7797 -12.7785 -12.7774 -11.0863 -11.0855 -11.0847 -11.0831 -10.8766
    -9.8824  -9.2000  -9.1990  -9.1978  -9.1966  -8.3222  -8.3206  -8.3191
    -8.3179  -7.6435  -7.3315  -7.3287  -7.2560  -7.2556  -7.2538  -7.2522
    -7.2402  -7.2395  -6.7279  -6.7256  -6.4065  -5.8317  -5.6998  -5.6985
    -5.6958  -5.6946  -5.5371  -5.5356  -5.5347  -5.5341  -5.2984  -5.2963
    -4.8965  -4.4141  -4.4076  -4.3886  -4.3855  -4.3834  -4.0580  -4.0572
    -3.9283  -3.9240  -3.8008  -3.8007  -3.2462  -3.2453  -3.2443  -3.2441
    -3.2202  -3.2195  -3.0969  -3.0838  -3.0825  -3.0380  -3.0358  -2.9921
    -2.8215  -2.8207  -2.8196  -2.8189  -2.7335  -2.7318  -2.6320  -2.6298
    -2.5522  -2.5492  -2.4826  -2.4797  -2.4288  -2.4273  -2.4261  -2.4255
    -2.1798  -2.1777  -2.1772  -2.1754  -2.1282  -2.1226  -2.0060  -2.0056
    -1.9920  -1.9894  -1.9660  -1.9658  -1.9657  -1.9656  -1.8529  -1.8505
    -1.8481  -1.8420  -1.8349  -1.8348  -1.8344  -1.8343  -1.7708  -1.7217
    -1.7204  -1.6540  -1.5907  -1.5511  -1.5510  -1.5510  -1.5507  -1.5010
    -1.5010  -1.4850  -1.4721  -1.4702  -1.4129  -1.4066  -1.3775  -1.3773
    -1.3764  -1.3747  -1.3435  -1.3432  -1.3426  -1.3424  -1.3290  -1.3275
    -1.2512  -1.2507  -1.2292  -1.1832  -1.1819  -1.1815  -1.1804  -1.1662
    -1.1123  -1.0774  -1.0753  -1.0714  -1.0701  -1.0641  -1.0249  -1.0246
    -1.0051  -1.0030  -0.9804  -0.9774  -0.9343  -0.9304  -0.9079  -0.9068
    -0.9056  -0.9050  -0.8603  -0.8574  -0.8460  -0.8369  -0.8367  -0.8362
    -0.8362  -0.8352  -0.8340  -0.8284  -0.8284  -0.8112  -0.7770  -0.7751
    -0.7650  -0.7413  -0.7406  -0.7364  -0.7317  -0.7310  -0.7304  -0.6715
    -0.6697  -0.6692  -0.6689  -0.6680  -0.6669  -0.6661  -0.6659  -0.6654
    -0.6615  -0.6615  -0.6610  -0.6588  -0.6555  -0.6555  -0.6417  -0.6417
    -0.5987  -0.5961  -0.5947  -0.5933  -0.5931  -0.5030  -0.5029  -0.4969
    -0.4965  -0.4721  -0.4712  -0.4548  -0.4547  -0.4323  -0.4322  -0.4167
    -0.4164  -0.4156  -0.4150  -0.4078  -0.4072  -0.3999  -0.3772  -0.3768
    -0.3746  -0.3742  -0.3666  -0.3659  -0.3546  -0.3544  -0.3055  -0.3053
    -0.2515  -0.2513  -0.2404  -0.2388  -0.2386  -0.2375  -0.2226  -0.2226
    -0.2173  -0.2173  -0.2169  -0.2169  -0.2133  -0.2132  -0.1980  -0.1979
    -0.1862  -0.1861  -0.1846  -0.1844  -0.1647  -0.1641  -0.1123  -0.1107
    -0.1095  -0.1040  -0.1038  -0.0773  -0.0772  -0.0762  -0.0762  -0.0587
    -0.0587  -0.0580  -0.0555  -0.0555  -0.0333  -0.0327  -0.0316  -0.0312
    -0.0265  -0.0264  -0.0255  -0.0253  -0.0235  -0.0205  -0.0026  -0.0019
    -0.0006  -0.0003   0.0002   0.0194   0.0678   0.0678   0.0697   0.0699
     0.0734   0.1192   0.1196   0.1200   0.1204   0.1250   0.1252   0.1253
     0.1256   0.1257   0.1415   0.1425   0.1782   0.1792   0.1806   0.1811
     0.1877   0.2096   0.2099   0.2102   0.2104   0.2141   0.2179   0.2333
     0.2339   0.2347   0.2354   0.2366   0.2368   0.2510   0.2511   0.2514
     0.2516   0.2650   0.2655   0.2661   0.2671   0.2888   0.2898   0.2962
     0.2989   0.3229   0.3234   0.3537   0.3544   0.3548   0.3549   0.3782
     0.3820   0.4244   0.4250   0.4271   0.4272   0.4277   0.4309   0.4595
     0.4608   0.4617   0.4627   0.4628   0.4639   0.4730   0.4732   0.5135
     0.5290   0.5290   0.5369   0.5371   0.5387   0.5388   0.5399   0.5644
     0.5717   0.5727   0.5727   0.5730   0.6043   0.6113   0.6114   0.6119
     0.6123   0.6261   0.6272   0.6279   0.6287   0.6676   0.6680   0.6833
     0.6835   0.6837   0.6856   0.6858   0.6984   0.7158   0.7189   0.7210
     0.7217   0.7224   0.7237   0.7239   0.7259   0.7290   0.7345   0.7348
     0.7421   0.7430   0.7433   0.7444   0.7527   0.7528   0.7830   0.7937
     0.7938   0.8050   0.8053   0.8377   0.8380   0.8383   0.8385   0.8412
     0.8413   0.8415   0.8416   0.8541   0.8546   0.8632   0.8673   0.8675
     0.8686   0.8708   0.8758   0.8759   0.8866   0.8871   0.8938   0.9089
     0.9093   0.9093   0.9098   0.9202   0.9206   0.9310   0.9349   0.9363
     0.9364   0.9414   0.9425   0.9437   0.9462   0.9568   0.9853   0.9904
     0.9905   0.9943   0.9944   0.9990   1.0061   1.0073   1.0125   1.0128
     1.0137   1.0147   1.0443   1.0449   1.0599   1.0607   1.0645   1.0645
     1.0793   1.0794   1.0885   1.0893   1.0895   1.0902   1.0970   1.1112
     1.1256   1.1272   1.1278   1.1301   1.1307   1.1317   1.1500   1.1557
[...]
     4.1967   4.1974   4.1977   4.2057   4.2081   4.2725   4.2753   4.4431
     4.4433   4.4456   4.4476   4.5995   4.7889   4.9523   5.1645   5.1664
     5.1929   5.1977   5.4949   5.5986   5.6035   5.6095   5.9074   5.9079
     5.9176   5.9212   6.1193   6.1219   6.4490   6.5431   6.5449   6.5842
     6.5995   6.6714   6.6716   6.6733   6.6753   6.8352   6.8362   6.8423
     6.8438   7.0018   7.0038   7.0056   7.0061   7.0817   7.1026   7.2428
     7.2720   7.2736   7.2777   7.2817   7.2864   7.5467   7.5493   7.7412
     7.7429   7.8277   7.8860   7.8862   7.8992   7.9003   7.9582   8.3160
     8.3229   8.3920   8.4073   8.4802   8.5008   8.5239   8.5241   8.5710
     8.5729   8.5963   8.6212   8.6315   8.7404   8.8007   8.8018   8.8074
     8.8132   8.8354   8.8619   8.8641   8.8650   8.8656   8.8692   9.0312
     9.0323   9.0329   9.0335   9.1053   9.2995   9.3011   9.3044   9.3048
     9.3139   9.3175   9.3383   9.5315   9.5358   9.5384   9.5726   9.5935
     9.7080   9.7127   9.7679   9.7682   9.8452  10.0191  10.2318  10.2322
    10.3350

[...]

          k = 0.2500-0.2165 0.0000 (256316 PWs)   bands (ev):

[...]

          k =-0.5000 0.0000 0.0000 (256496 PWs)   bands (ev):

[...]

          k =-0.5000-0.2165 0.0000 (256328 PWs)   bands (ev):

   -23.4323 -22.2016 -15.5934 -15.5905 -15.5808 -15.5790 -14.8502 -14.8492
   -14.8486 -14.8473 -13.4017 -13.4012 -13.4001 -13.3996 -11.7793 -11.7786
   -11.7679 -11.7678 -11.3354 -11.3335 -11.3311 -11.3300 -11.1565 -11.1552
   -11.1495 -11.1491  -9.4573  -9.4570  -9.4507  -9.4504  -8.4938  -8.4920
    -8.4842  -8.4824  -7.7259  -7.7258  -7.7211  -7.7199  -7.6411  -6.7281
    -6.7256  -6.4063  -5.6483  -5.6473  -5.6471  -5.6461  -5.0262  -5.0257
    -5.0202  -5.0201  -4.9940  -4.9934  -4.9932  -4.9930  -4.7997  -4.7974
    -4.7847  -4.7820  -4.1414  -4.1363  -4.1244  -4.1224  -4.0114  -4.0112
    -4.0110  -4.0108  -3.9238  -3.9226  -3.9225  -3.9213  -3.6719  -3.6665
    -3.6619  -3.6607  -3.3786  -3.3776  -3.3730  -3.3726  -3.3723  -3.3717
    -3.3681  -3.3679  -3.2478  -3.2465  -3.2446  -3.2426  -2.8500  -2.8493
    -2.8486  -2.8447  -2.3928  -2.3927  -2.3926  -2.3923  -2.3363  -2.3359
    -2.3344  -2.3333  -2.0489  -2.0484  -2.0476  -2.0471  -1.9909  -1.9900
    -1.9074  -1.9070  -1.9066  -1.9061  -1.8275  -1.8269  -1.8266  -1.8264
    -1.7459  -1.7445  -1.7391  -1.7382  -1.6170  -1.6168  -1.6158  -1.6155
    -1.5169  -1.5158  -1.5138  -1.5131  -1.3073  -1.3072  -1.3071  -1.3071
    -1.2959  -1.2954  -1.2938  -1.2938  -1.2669  -1.2666  -1.2660  -1.2658
    -1.2466  -1.2465  -1.2463  -1.2461  -1.1980  -1.1979  -1.1978  -1.1977
    -1.1961  -1.1959  -1.1950  -1.1949  -1.1718  -1.1718  -1.1717  -1.1716
    -1.1214  -1.1212  -1.1208  -1.1205  -1.0450  -1.0446  -1.0443  -1.0440
    -1.0044  -1.0044  -1.0038  -1.0036  -0.9849  -0.9846  -0.9845  -0.9845
    -0.9345  -0.9344  -0.9343  -0.9343  -0.9287  -0.9286  -0.9286  -0.9286
    -0.8989  -0.8987  -0.8986  -0.8982  -0.8714  -0.8712  -0.8699  -0.8697
    -0.8543  -0.8541  -0.8530  -0.8529  -0.8504  -0.8503  -0.8500  -0.8497
    -0.7638  -0.7613  -0.7477  -0.7453  -0.6960  -0.6955  -0.6949  -0.6946
    -0.6664  -0.6664  -0.6661  -0.6661  -0.5835  -0.5831  -0.5826  -0.5824
    -0.5789  -0.5785  -0.5784  -0.5779  -0.5744  -0.5743  -0.5741  -0.5741
    -0.5133  -0.5132  -0.5131  -0.5128  -0.5019  -0.5016  -0.5011  -0.5006
    -0.4814  -0.4809  -0.4794  -0.4792  -0.3856  -0.3853  -0.3832  -0.3831
    -0.3795  -0.3794  -0.3787  -0.3787  -0.3115  -0.3113  -0.3111  -0.3108
    -0.2615  -0.2615  -0.2612  -0.2611  -0.2411  -0.2408  -0.2403  -0.2401
    -0.2136  -0.2134  -0.2120  -0.2119  -0.2019  -0.2017  -0.2012  -0.2009
    -0.1600  -0.1594  -0.1592  -0.1587  -0.0871  -0.0870  -0.0859  -0.0858
    -0.0704  -0.0703  -0.0699  -0.0699  -0.0534  -0.0533  -0.0529  -0.0527
     0.0295   0.0297   0.0298   0.0299   0.0341   0.0343   0.0344   0.0345
     0.0376   0.0378   0.0378   0.0379   0.0753   0.0754   0.0755   0.0755
     0.0879   0.0881   0.0885   0.0887   0.0917   0.0917   0.0918   0.0919
     0.1611   0.1613   0.1623   0.1624   0.1862   0.1865   0.1882   0.1883
     0.2372   0.2375   0.2419   0.2422   0.2554   0.2558   0.2615   0.2616
     0.2690   0.2690   0.2698   0.2699   0.2757   0.2759   0.2776   0.2778
     0.2798   0.2803   0.2816   0.2820   0.2887   0.2888   0.2896   0.2897
     0.2942   0.2944   0.2945   0.2947   0.3111   0.3111   0.3113   0.3113
     0.3393   0.3394   0.3394   0.3395   0.3491   0.3493   0.3494   0.3496
     0.3981   0.3981   0.3986   0.3987   0.4311   0.4311   0.4312   0.4314
     0.5009   0.5019   0.5071   0.5075   0.5155   0.5161   0.5166   0.5167
     0.5319   0.5321   0.5328   0.5329   0.5471   0.5473   0.5488   0.5491
     0.5497   0.5503   0.5514   0.5517   0.5562   0.5564   0.5591   0.5593
     0.5669   0.5674   0.5689   0.5702   0.5900   0.5921   0.5951   0.5969
     0.6415   0.6415   0.6423   0.6425   0.6461   0.6461   0.6473   0.6473
     0.6569   0.6570   0.6574   0.6574   0.6958   0.6959   0.6974   0.6976
     0.6981   0.6985   0.6986   0.6987   0.7420   0.7421   0.7432   0.7433
     0.7548   0.7550   0.7555   0.7557   0.7596   0.7600   0.7612   0.7615
     0.7635   0.7638   0.7642   0.7644   0.7794   0.7796   0.7804   0.7805
     0.7963   0.7966   0.7969   0.7972   0.8654   0.8659   0.8673   0.8677
     0.8703   0.8703   0.8708   0.8709   0.8795   0.8798   0.8805   0.8807
     0.8985   0.8988   0.9023   0.9029   0.9162   0.9164   0.9170   0.9171
     0.9195   0.9197   0.9203   0.9204   0.9705   0.9705   0.9724   0.9725
     0.9996   0.9996   1.0000   1.0000   1.0226   1.0232   1.0248   1.0253
     1.0351   1.0352   1.0357   1.0358   1.0595   1.0595   1.0618   1.0619
     1.1130   1.1131   1.1135   1.1137   1.1464   1.1465   1.1478   1.1479
[...]
     4.5273   4.5304   4.7480   4.7499   4.7509   4.7525   4.7875   4.7880
     4.7945   4.7949   5.0847   5.0874   5.0920   5.0931   5.2576   5.2586
     5.2840   5.2856   5.3631   5.3634   5.3684   5.3690   5.4966   5.4983
     5.5165   5.5210   5.5404   5.5436   5.5440   5.5449   5.9272   5.9287
     5.9317   5.9328   5.9378   5.9392   5.9446   5.9460   6.0733   6.0763
     6.0792   6.0826   6.6727   6.9664   6.9665   6.9757   6.9761   7.3100
     7.3105   7.3162   7.3165   7.3445   7.3448   7.3450   7.3456   7.4619
     7.4632   7.4649   7.4752   7.5528   7.5529   7.5530   7.5534   7.8067
     7.8070   7.8092   7.8129   8.0265   8.1635   8.1648   8.1658   8.1690
     8.2433   8.2452   8.2475   8.2492   8.3549   8.3996   8.4317   8.4330
     8.4399   8.4404   8.8170   9.0540   9.0762   9.0830   9.0834   9.0839
     9.0843   9.0851   9.0867   9.1093   9.1335   9.1562   9.1564   9.1570
     9.1573   9.1926   9.1972   9.2060   9.2720   9.2782   9.6206   9.6641
     9.7215   9.7235   9.7422   9.7585   9.7602   9.7638   9.7642   9.8934
     9.9550

     the Fermi energy is     3.5093 ev

!    total energy              =  -12782.00430421 Ry
     Harris-Foulkes estimate   =  -12782.00430420 Ry
     estimated scf accuracy    <          2.7E-09 Ry

     The total energy is the sum of the following terms:

     one-electron contribution = -106549.98380480 Ry
     hartree contribution      =   54652.46739818 Ry
     xc contribution           =   -4465.01858537 Ry
     ewald contribution        =   43586.93770455 Ry
     Dispersion Correction     =      -2.99686314 Ry
     smearing contrib. (-TS)   =      -3.41015363 Ry

     convergence has been achieved in  49 iterations

     Writing output data file gc.save

     General routines

     Parallel routines

   This run was terminated on:   3: 0:35  15Sep2017

   JOB DONE.