     Program PWSCF v.5.4.0 starts on 26Mar2017 at 15:34:12

     Current dimensions of program PWSCF are:
     Max number of different atomic species (ntypx) = 10
     Max number of k-points (npk) =  40000
     Max angular momentum in pseudopotentials (lmaxx) =  3

     Parameters for Dispersion Correction:
       atom      VdW radius       C_6

        Cu         2.952        374.666
        C_h        2.744         60.710
        C          2.744         60.710

     bravais-lattice index     =            0
     lattice parameter (alat)  =      13.9425  a.u.
     unit-cell volume          =   21209.0878 (a.u.)^3
     number of atoms/cell      =          148
     number of atomic types    =            3
     number of electrons       =      1292.00
     number of Kohn-Sham states=          775
     kinetic-energy cutoff     =      80.0000  Ry
     charge density cutoff     =     320.0000  Ry
     convergence threshold     =      1.0E-08
     mixing beta               =       0.7000
     number of iterations used =            8  local-TF  mixing
     Exchange-correlation      =  SLA  PW   PBX  PBC ( 1  4  3  4 0 0)

     celldm(1)=  13.942539  celldm(2)=   0.000000  celldm(3)=   0.000000
     celldm(4)=   0.000000  celldm(5)=   0.000000  celldm(6)=   0.000000

     crystal axes: (cart. coord. in units of alat)
               a(1) = (   1.000000   0.000000   0.000000 )
               a(2) = (   0.000000   2.309401   0.000000 )
               a(3) = (   0.000000   0.000000   3.388418 )

     reciprocal axes: (cart. coord. in units 2 pi/alat)
               b(1) = (  1.000000  0.000000  0.000000 )
               b(2) = (  0.000000  0.433013  0.000000 )
               b(3) = (  0.000000  0.000000  0.295123 )

     PseudoPot. # 1 for Cu read from file:
     /home/549/hxw549/Short/pseudopotentials/Cu.pbe-n-van_ak.UPF
     MD5 check sum: 601f7c30f7467666bec936e0661ce3e1
     Pseudo is Ultrasoft + core correction, Zval = 11.0
     Generated by new atomic code, or converted to UPF format
     Using radial grid of  867 points,  6 beta functions with:
                l(1) =   0
                l(2) =   0
                l(3) =   1
                l(4) =   1
                l(5) =   2
                l(6) =   2
     Q(r) pseudized with  8 coefficients,  rinner =    1.400   1.400   1.400
                                                       1.400   1.400

     PseudoPot. # 2 for C  read from file:
     /home/549/hxw549/Short/pseudopotentials/C.star1s-pbe-mt_gipaw.UPF
     MD5 check sum: ef0cb3dee31bd9e4ba2a832a2c716264
     Pseudo is Norm-conserving, Zval =  5.0
     Generated by new atomic code, or converted to UPF format
     Using radial grid of 1073 points,  1 beta functions with:
                l(1) =   0

     PseudoPot. # 3 for C  read from file:
     /home/549/hxw549/Short/pseudopotentials/C.pbe-mt_gipaw.UPF
     MD5 check sum: 5ac2f21f2c440b14befe521540822c15
     Pseudo is Norm-conserving, Zval =  4.0
     Generated by new atomic code, or converted to UPF format
     Using radial grid of 1073 points,  1 beta functions with:
                l(1) =   0

     atomic species   valence    mass     pseudopotential
        Cu            11.00    63.54600     Cu( 1.00)
        C_h            5.00    12.01070     C ( 1.00)
        C              4.00    12.01070     C ( 1.00)

     No symmetry found

   Cartesian axes

     site n.     atom                  positions (alat units)
         1           Cu  tau(   1) = (   0.0000000   0.0000567   0.9971194  )
         2           Cu  tau(   2) = (   0.2499927   0.2309760   0.9972946  )
         3           Cu  tau(   3) = (   0.5000000   0.0000313   0.9971490  )
         4           Cu  tau(   4) = (   0.7500073   0.2309760   0.9972946  )
         5           Cu  tau(   5) = (   0.0000000   0.4618437   0.9973425  )
         6           Cu  tau(   6) = (   0.2499840   0.6927701   0.9971914  )
         7           Cu  tau(   7) = (   0.5000000   0.4618722   0.9973119  )
         8           Cu  tau(   8) = (   0.7500160   0.6927701   0.9971914  )
         9           Cu  tau(   9) = (   0.0000000   0.9237521   0.9970621  )
        10           Cu  tau(  10) = (   0.2500157   1.1547420   0.9971373  )
        11           Cu  tau(  11) = (   0.5000000   0.9237453   0.9970727  )
        12           Cu  tau(  12) = (   0.7499843   1.1547420   0.9971373  )
        13           Cu  tau(  13) = (   0.0000000   1.3856555   0.9972830  )
        14           Cu  tau(  14) = (   0.2500029   1.6165618   0.9973242  )
        15           Cu  tau(  15) = (   0.5000000   1.3857014   0.9973005  )
        16           Cu  tau(  16) = (   0.7499971   1.6165618   0.9973242  )
        17           Cu  tau(  17) = (   0.0000000   1.8474941   0.9971969  )
        18           Cu  tau(  18) = (   0.2500043   2.0784518   0.9970745  )
        19           Cu  tau(  19) = (   0.5000000   1.8474499   0.9971773  )
        20           Cu  tau(  20) = (   0.7499957   2.0784518   0.9970745  )
        21           Cu  tau(  21) = (   0.0000000   0.2308065   1.2457643  )
        22           Cu  tau(  22) = (   0.2499892  -0.0001010   1.2455764  )
        23           Cu  tau(  23) = (   0.5000000   0.2308938   1.2456746  )
        24           Cu  tau(  24) = (   0.7500108  -0.0001010   1.2455764  )
        25           Cu  tau(  25) = (   0.0000000   0.6929786   1.2456406  )
        26           Cu  tau(  26) = (   0.2499874   0.4619293   1.2457459  )
        27           Cu  tau(  27) = (   0.5000000   0.6929012   1.2456074  )
        28           Cu  tau(  28) = (   0.7500126   0.4619293   1.2457459  )
        29           Cu  tau(  29) = (   0.0000000   1.1546142   1.2455676  )
        30           Cu  tau(  30) = (   0.2499981   0.9237849   1.2455149  )
        31           Cu  tau(  31) = (   0.5000000   1.1545763   1.2455800  )
        32           Cu  tau(  32) = (   0.7500019   0.9237849   1.2455149  )
        33           Cu  tau(  33) = (   0.0000000   1.6166029   1.2456910  )
        34           Cu  tau(  34) = (   0.2500161   1.3855492   1.2457134  )
        35           Cu  tau(  35) = (   0.5000000   1.6166555   1.2458019  )
        36           Cu  tau(  36) = (   0.7499839   1.3855492   1.2457134  )
        37           Cu  tau(  37) = (   0.0000000   2.0784993   1.2455162  )
        38           Cu  tau(  38) = (   0.2500161   1.8476387   1.2456210  )
        39           Cu  tau(  39) = (   0.5000000   2.0784755   1.2455152  )
        40           Cu  tau(  40) = (   0.7499839   1.8476387   1.2456210  )
        41           Cu  tau(  41) = (   0.0000000  -0.0003182   1.4954305  )
        42           Cu  tau(  42) = (   0.2500224   0.2307186   1.4951678  )
        43           Cu  tau(  43) = (   0.5000000  -0.0002059   1.4952775  )
        44           Cu  tau(  44) = (   0.7499776   0.2307186   1.4951678  )
        45           Cu  tau(  45) = (   0.0000000   0.4620254   1.4950571  )
        46           Cu  tau(  46) = (   0.2500339   0.6931225   1.4952807  )
        47           Cu  tau(  47) = (   0.5000000   0.4619896   1.4952144  )
        48           Cu  tau(  48) = (   0.7499661   0.6931225   1.4952807  )
        49           Cu  tau(  49) = (   0.0000000   0.9238798   1.4954544  )
        50           Cu  tau(  50) = (   0.2499708   1.1544329   1.4953374  )
        51           Cu  tau(  51) = (   0.5000000   0.9237633   1.4954072  )
        52           Cu  tau(  52) = (   0.7500292   1.1544329   1.4953374  )
        53           Cu  tau(  53) = (   0.0000000   1.3854453   1.4952066  )
        54           Cu  tau(  54) = (   0.2499861   1.6167017   1.4951298  )
        55           Cu  tau(  55) = (   0.5000000   1.3853760   1.4951346  )
        56           Cu  tau(  56) = (   0.7500139   1.6167017   1.4951298  )
        57           Cu  tau(  57) = (   0.0000000   1.8477718   1.4952308  )
        58           Cu  tau(  58) = (   0.2499930   2.0785254   1.4954090  )
        59           Cu  tau(  59) = (   0.5000000   1.8478762   1.4953503  )
        60           Cu  tau(  60) = (   0.7500070   2.0785254   1.4954090  )
[...]
       113           C   tau( 113) = (   0.0000000   0.6735163   2.3892509  )
       114           C   tau( 114) = (   0.0000000   0.8659398   2.3870960  )
       115           C   tau( 115) = (   0.1664759   0.5773226   2.3882842  )
       116           C   tau( 116) = (   0.1667428   0.9622141   2.3870264  )
       117           C   tau( 117) = (   0.3332094   0.6735984   2.3858047  )
       118           C   tau( 118) = (   0.3332031   0.8660537   2.3866148  )
       119           C   tau( 119) = (   0.5000000   0.5773685   2.3848465  )
       120           C   tau( 120) = (   0.5000000   0.9623380   2.3860825  )
       121           C   tau( 121) = (   0.6667906   0.6735984   2.3858047  )
       122           C   tau( 122) = (   0.6667969   0.8660537   2.3866148  )
       123           C   tau( 123) = (   0.8335241   0.5773226   2.3882842  )
       124           C   tau( 124) = (   0.8332572   0.9622141   2.3870264  )
       125           C   tau( 125) = (   0.0000000   1.2508867   2.3852683  )
       126           C   tau( 126) = (   0.0000000   1.4433300   2.3840871  )
       127           C   tau( 127) = (   0.1667360   1.1546708   2.3859697  )
       128           C_h tau( 128) = (   0.1668939   1.5396104   2.3857176  )
       129           C   tau( 129) = (   0.3335095   1.2509657   2.3878953  )
       130           C   tau( 130) = (   0.3334866   1.4433958   2.3886602  )
       131           C   tau( 131) = (   0.5000000   1.1547731   2.3885512  )
       132           C   tau( 132) = (   0.5000000   1.5396099   2.3901428  )
       133           C   tau( 133) = (   0.6664905   1.2509657   2.3878953  )
       134           C   tau( 134) = (   0.6665134   1.4433958   2.3886602  )
       135           C   tau( 135) = (   0.8332640   1.1546708   2.3859697  )
       136           C   tau( 136) = (   0.8331061   1.5396104   2.3857176  )
       137           C   tau( 137) = (   0.0000000   1.8283510   2.3842019  )
       138           C   tau( 138) = (   0.0000000   2.0207949   2.3863399  )
       139           C   tau( 139) = (   0.1668959   1.7320513   2.3858703  )
       140           C   tau( 140) = (   0.1666186   2.1169980   2.3865340  )
       141           C   tau( 141) = (   0.3334155   1.8282368   2.3882160  )
       142           C   tau( 142) = (   0.3334352   2.0206763   2.3869561  )
       143           C   tau( 143) = (   0.5000000   1.7319961   2.3895398  )
       144           C   tau( 144) = (   0.5000000   2.1168754   2.3870198  )
       145           C   tau( 145) = (   0.6665845   1.8282368   2.3882160  )
       146           C   tau( 146) = (   0.6665648   2.0206763   2.3869561  )
       147           C   tau( 147) = (   0.8331041   1.7320513   2.3858703  )
       148           C   tau( 148) = (   0.8333814   2.1169980   2.3865340  )

     number of k points=     6  gaussian smearing, width (Ry)=  0.1000
                       cart. coord. in units 2pi/alat
        k(    1) = (   0.0000000   0.0000000   0.0000000), wk =   0.2500000
        k(    2) = (   0.0000000  -0.2165064   0.0000000), wk =   0.2500000
        k(    3) = (   0.2500000   0.0000000   0.0000000), wk =   0.5000000
        k(    4) = (   0.2500000  -0.2165064   0.0000000), wk =   0.5000000
        k(    5) = (  -0.5000000   0.0000000   0.0000000), wk =   0.2500000
        k(    6) = (  -0.5000000  -0.2165064   0.0000000), wk =   0.2500000

     Largest allocated arrays     est. size (Mb)     dimensions
     Largest temporary arrays     est. size (Mb)     dimensions

     Initial potential from superposition of free atoms
     Check: negative starting charge=   -0.001842

     starting charge 1266.81751, renormalised to 1292.00000

     negative rho (up, down):  1.879E-03 0.000E+00
     Starting wfc are 1284 randomized atomic wfcs

     Self-consistent Calculation

     iteration #  1     ecut=    80.00 Ry     beta=0.70
     Davidson diagonalization with overlap
     ethr =  1.00E-04,  avg # of iterations = 35.2

     negative rho (up, down):  2.724E+01 0.000E+00

     total energy              =   -9474.09745194 Ry
     Harris-Foulkes estimate   =  -17310.42925888 Ry
     estimated scf accuracy    <  180122.51186520 Ry

[...]

     iteration # 27     ecut=    80.00 Ry     beta=0.70
     Davidson diagonalization with overlap
     c_bands:  2 eigenvalues not converged
     ethr =  3.21E-04,  avg # of iterations = 11.7

[...]

     iteration # 38     ecut=    80.00 Ry     beta=0.70
     Davidson diagonalization with overlap
     c_bands:  1 eigenvalues not converged
     ethr =  1.14E-08,  avg # of iterations = 10.0

[...]

     total energy              =  -12707.14387583 Ry
     Harris-Foulkes estimate   =  -12707.14387576 Ry
     estimated scf accuracy    <       0.00000008 Ry

     iteration # 46     ecut=    80.00 Ry     beta=0.70
     Davidson diagonalization with overlap
     ethr =  6.26E-12,  avg # of iterations =  2.8

     negative rho (up, down):  2.115E-03 0.000E+00

     End of self-consistent calculation

          k = 0.0000 0.0000 0.0000 (256287 PWs)   bands (ev):

   -17.2803 -16.2341 -16.0879 -15.4297 -15.0433 -14.7903 -14.6879 -14.2540
   -14.1968 -14.1393 -14.1237 -13.4652 -13.3263 -13.1554 -13.1201 -13.0847
   -13.0794 -11.6703 -11.5336 -11.4826 -11.3895 -11.2049 -10.3533  -9.7684
    -9.7591  -9.6266  -9.5222  -8.9875  -8.7980  -8.6709  -8.6018  -8.0472
    -7.9028  -7.7671  -7.6324  -7.5808  -7.5685  -7.5374  -7.5245  -6.3566
    -6.3511  -6.1245  -6.0221  -6.0216  -5.9486  -5.8905  -5.8582  -5.8429
    -5.5006  -5.4833  -5.3028  -4.8907  -4.8410  -4.7967  -4.6343  -4.6218
    -4.5839  -4.4244  -4.2592  -4.1466  -3.9899  -3.9884  -3.9686  -3.9474
    -3.6158  -3.5496  -3.5324  -3.5201  -3.4207  -3.4173  -3.4073  -3.4013
    -3.2775  -3.1882  -3.1222  -3.0561  -3.0149  -3.0097  -3.0057  -3.0053
    -2.9931  -2.8587  -2.8345  -2.7977  -2.7806  -2.7441  -2.7408  -2.7402
    -2.7189  -2.7124  -2.5317  -2.4326  -2.3776  -2.3763  -2.3403  -2.3367
    -2.1952  -2.1927  -2.1798  -2.1782  -2.1526  -2.1524  -2.1523  -2.1521
    -2.1126  -2.0792  -2.0780  -2.0348  -2.0216  -2.0215  -2.0215  -2.0211
    -1.9616  -1.8424  -1.7775  -1.7436  -1.7399  -1.7384  -1.7382  -1.7030
    -1.6934  -1.6721  -1.6591  -1.6573  -1.6153  -1.5959  -1.5951  -1.5705
    -1.5648  -1.5625  -1.5614  -1.5510  -1.5407  -1.5348  -1.5344  -1.5161
    -1.5145  -1.4568  -1.4414  -1.4298  -1.4165  -1.3902  -1.3796  -1.3781
    -1.3700  -1.3534  -1.2994  -1.2936  -1.2641  -1.2627  -1.2500  -1.2122
    -1.2118  -1.1923  -1.1902  -1.1815  -1.1675  -1.1646  -1.1238  -1.1202
    -1.1078  -1.1057  -1.0491  -1.0485  -1.0349  -1.0299  -1.0268  -1.0257
    -1.0255  -1.0224  -1.0211  -1.0161  -1.0160  -0.9987  -0.9967  -0.9795
    -0.9523  -0.9384  -0.9380  -0.9343  -0.9239  -0.9191  -0.9185  -0.9177
    -0.8955  -0.8588  -0.8581  -0.8571  -0.8563  -0.8560  -0.8550  -0.8541
    -0.8535  -0.8533  -0.8497  -0.8487  -0.8487  -0.8483  -0.8462  -0.8429
    -0.8423  -0.8324  -0.8307  -0.8278  -0.8253  -0.7862  -0.6902  -0.6902
    -0.6864  -0.6839  -0.6835  -0.6605  -0.6591  -0.6420  -0.6419  -0.6203
    -0.6202  -0.6047  -0.6046  -0.6042  -0.6039  -0.5882  -0.5648  -0.5643
    -0.5623  -0.5618  -0.5542  -0.5535  -0.5428  -0.5424  -0.4926  -0.4926
    -0.4387  -0.4384  -0.4281  -0.4267  -0.4263  -0.4249  -0.4112  -0.4109
    -0.4056  -0.4051  -0.4049  -0.4046  -0.4004  -0.4003  -0.3855  -0.3855
    -0.3849  -0.3792  -0.3753  -0.3752  -0.3516  -0.3510  -0.3008  -0.2979
    -0.2974  -0.2916  -0.2914  -0.2649  -0.2649  -0.2649  -0.2648  -0.2489
    -0.2474  -0.2472  -0.2430  -0.2429  -0.2224  -0.2216  -0.2211  -0.2207
    -0.2160  -0.2152  -0.2147  -0.2145  -0.2122  -0.2091  -0.1936  -0.1906
    -0.1899  -0.1885  -0.1879  -0.1684  -0.1209  -0.1206  -0.1187  -0.1184
    -0.1159  -0.0728  -0.0715  -0.0705  -0.0688  -0.0686  -0.0629  -0.0625
    -0.0623  -0.0621  -0.0621  -0.0522  -0.0482  -0.0341  -0.0109  -0.0097
    -0.0086  -0.0082   0.0005   0.0184   0.0205   0.0210   0.0212   0.0262
     0.0290   0.0451   0.0453   0.0462   0.0474   0.0490   0.0492   0.0624
     0.0631   0.0632   0.0635   0.0680   0.0757   0.0770   0.0775   0.1000
     0.1011   0.1240   0.1347   0.1352   0.1519   0.1639   0.1642   0.1894
     0.1921   0.2314   0.2375   0.2376   0.2382   0.2393   0.2427   0.2491
     0.2699   0.2726   0.2732   0.2734   0.2736   0.2836   0.2838   0.2911
     0.3259   0.3403   0.3403   0.3468   0.3488   0.3496   0.3500   0.3770
     0.3824   0.3826   0.3835   0.3840   0.4076   0.4144   0.4150   0.4224
     0.4227   0.4363   0.4376   0.4379   0.4393   0.4773   0.4787   0.4923
     0.4947   0.4958   0.4965   0.4966   0.5079   0.5204   0.5278   0.5300
     0.5339   0.5347   0.5349   0.5352   0.5368   0.5391   0.5465   0.5467
     0.5483   0.5526   0.5532   0.5544   0.5630   0.5637   0.5875   0.5952
     0.6052   0.6056   0.6157   0.6159   0.6484   0.6486   0.6489   0.6499
     0.6521   0.6523   0.6525   0.6529   0.6642   0.6649   0.6734   0.6774
     0.6786   0.6789   0.6804   0.6869   0.6870   0.6930   0.6977   0.6988
     0.7188   0.7199   0.7202   0.7231   0.7307   0.7316   0.7422   0.7457
     0.7475   0.7480   0.7480   0.7519   0.7550   0.7564   0.7587   0.7664
     0.7680   0.7788   0.8054   0.8055   0.8160   0.8165   0.8231   0.8233
     0.8241   0.8246   0.8551   0.8559   0.8694   0.8703   0.8757   0.8757
     0.8903   0.8905   0.8998   0.9001   0.9001   0.9016   0.9085   0.9213
     0.9354   0.9376   0.9390   0.9416   0.9423   0.9429   0.9572   0.9655
     0.9771   0.9833   0.9854   0.9859   0.9963   0.9967   1.0097   1.0107
[...]
     3.8498   3.8532   3.8548   3.8923   3.9669   3.9753   3.9921   4.0024
     4.0056   4.0076   4.0092   4.0127   4.0135   4.2267   4.2462   4.2510
     4.2526   4.3509   4.3983   4.6652   4.7650   4.8506   4.8858   4.9204
     5.3043   5.3897   5.3978   5.4072   5.6965   5.7088   5.7192   5.7242
     5.9177   5.9305   6.2019   6.3457   6.3496   6.3924   6.4115   6.4692
     6.4753   6.4808   6.4861   6.5739   6.5924   6.6082   6.7109   6.7695
     6.7796   6.7927   6.8062   6.8522   7.0315   7.0438   7.0502   7.0636
     7.0668   7.0915   7.3535   7.3591   7.5125   7.5459   7.5492   7.6920
     7.6953   7.7082   7.7105   8.0011   8.0405   8.0932   8.1356   8.2041
     8.2157   8.2992   8.3045   8.3060   8.3348   8.3376   8.3668   8.3740
     8.3771   8.4724   8.5128   8.5335   8.5654   8.5736   8.6617   8.6642
     8.6678   8.6690   8.8137   8.8152   8.8309   8.8315   8.8385   8.8393
     9.1067   9.1086   9.1108   9.1151   9.1193   9.1386   9.1742   9.3184
     9.3442   9.3526   9.4194   9.4811   9.4913   9.5767   9.5778   9.6618
     9.6709   9.8165   9.8303  10.0425  10.0434  10.1304  10.1475

[...]

          k = 0.2500-0.2165 0.0000 (256316 PWs)   bands (ev):

[...]

          k =-0.5000 0.0000 0.0000 (256496 PWs)   bands (ev):

[...]

          k =-0.5000-0.2165 0.0000 (256328 PWs)   bands (ev):

   -17.1678 -15.9761 -15.8195 -15.7961 -15.3893 -15.2185 -15.1507 -15.1142
   -14.0570 -13.8400 -13.7090 -13.6730 -12.6785 -12.4566 -12.0041 -11.9964
   -11.9174 -11.7752 -11.6754 -11.5883 -11.5366 -11.5334 -11.4236 -11.4062
   -10.0435 -10.0374  -9.7690  -9.7234  -9.2280  -8.9100  -8.7955  -8.7610
    -8.2693  -8.2309  -8.0220  -7.9993  -6.5322  -6.3434  -6.1229  -5.9494
    -5.8396  -5.6249  -5.3891  -5.3124  -5.3047  -5.2172  -5.2152  -5.1823
    -5.1802  -5.1800  -5.0182  -5.0057  -4.9550  -4.5110  -4.3846  -4.3516
    -4.3290  -4.3192  -4.2627  -4.2141  -4.2014  -4.1991  -4.1983  -4.1981
    -4.0801  -4.0753  -3.9145  -3.8769  -3.8649  -3.8586  -3.7540  -3.7449
    -3.7030  -3.6892  -3.6016  -3.5922  -3.5862  -3.4867  -3.4677  -3.4569
    -3.1736  -3.0871  -3.0729  -3.0622  -2.6377  -2.5840  -2.5816  -2.5796
    -2.5795  -2.5793  -2.5453  -2.5296  -2.5247  -2.5234  -2.4069  -2.3529
    -2.1628  -2.1520  -2.1093  -2.1011  -2.0975  -2.0964  -2.0512  -2.0502
    -2.0205  -2.0188  -2.0176  -2.0106  -1.9364  -1.8038  -1.8034  -1.8029
    -1.8023  -1.7726  -1.7404  -1.7283  -1.5684  -1.5238  -1.5092  -1.5027
    -1.4941  -1.4940  -1.4940  -1.4940  -1.4599  -1.4570  -1.4543  -1.4542
    -1.4343  -1.4341  -1.4339  -1.4337  -1.3849  -1.3847  -1.3846  -1.3844
    -1.3830  -1.3826  -1.3825  -1.3821  -1.3592  -1.3592  -1.3590  -1.3590
    -1.3100  -1.3091  -1.3083  -1.3077  -1.3062  -1.2384  -1.2341  -1.2333
    -1.2331  -1.1917  -1.1915  -1.1915  -1.1914  -1.1745  -1.1721  -1.1716
    -1.1715  -1.1282  -1.1227  -1.1224  -1.1223  -1.1176  -1.1164  -1.1163
    -1.1162  -1.1117  -1.0965  -1.0926  -1.0911  -1.0869  -1.0579  -1.0577
    -1.0575  -1.0573  -1.0416  -1.0409  -1.0407  -1.0405  -1.0390  -1.0379
    -1.0376  -1.0375  -1.0372  -1.0086  -0.8832  -0.8829  -0.8828  -0.8823
    -0.8539  -0.8535  -0.8532  -0.8532  -0.8023  -0.7718  -0.7706  -0.7704
    -0.7701  -0.7697  -0.7688  -0.7677  -0.7632  -0.7627  -0.7619  -0.7618
    -0.7045  -0.7008  -0.7008  -0.7005  -0.6937  -0.6898  -0.6892  -0.6885
    -0.6756  -0.6682  -0.6679  -0.6676  -0.6413  -0.5829  -0.5740  -0.5724
    -0.5688  -0.5671  -0.5670  -0.5665  -0.5045  -0.4990  -0.4989  -0.4985
    -0.4958  -0.4499  -0.4495  -0.4491  -0.4464  -0.4290  -0.4286  -0.4283
    -0.4278  -0.4104  -0.4008  -0.4005  -0.3899  -0.3899  -0.3890  -0.3890
    -0.3741  -0.3517  -0.3486  -0.3481  -0.3263  -0.2744  -0.2742  -0.2738
    -0.2736  -0.2583  -0.2582  -0.2577  -0.2576  -0.2420  -0.2412  -0.2409
    -0.2388  -0.1609  -0.1601  -0.1589  -0.1578  -0.1542  -0.1539  -0.1536
    -0.1535  -0.1524  -0.1503  -0.1500  -0.1478  -0.1133  -0.1132  -0.1131
    -0.1131  -0.1010  -0.1007  -0.1005  -0.1000  -0.0973  -0.0965  -0.0963
    -0.0961  -0.0679  -0.0274  -0.0269  -0.0264  -0.0260  -0.0025  -0.0010
     0.0009   0.0024   0.0476   0.0491   0.0507   0.0551   0.0611   0.0639
     0.0788   0.0791   0.0796   0.0796   0.0849   0.0864   0.0870   0.0875
     0.0892   0.0897   0.0913   0.0928   0.0995   0.0996   0.0999   0.1006
     0.1056   0.1057   0.1058   0.1059   0.1171   0.1214   0.1224   0.1226
     0.1374   0.1504   0.1504   0.1504   0.1505   0.1585   0.1606   0.1608
     0.1637   0.2075   0.2099   0.2103   0.2105   0.2192   0.2428   0.2431
     0.2439   0.2486   0.2669   0.2932   0.3099   0.3193   0.3250   0.3263
     0.3277   0.3282   0.3347   0.3417   0.3439   0.3444   0.3459   0.3511
     0.3603   0.3604   0.3609   0.3611   0.3634   0.3661   0.3667   0.3676
     0.3687   0.3690   0.3722   0.3762   0.3772   0.3852   0.4009   0.4014
     0.4454   0.4455   0.4510   0.4516   0.4560   0.4567   0.4576   0.4577
     0.4684   0.4685   0.4687   0.4691   0.5066   0.5071   0.5079   0.5086
     0.5089   0.5091   0.5097   0.5100   0.5413   0.5530   0.5536   0.5537
     0.5539   0.5620   0.5663   0.5669   0.5672   0.5678   0.5681   0.5694
     0.5754   0.5756   0.5758   0.5759   0.5898   0.5907   0.5907   0.5908
     0.6001   0.6025   0.6066   0.6074   0.6650   0.6754   0.6770   0.6773
     0.6787   0.6821   0.6823   0.6825   0.6828   0.6834   0.6887   0.6909
     0.6936   0.7009   0.7064   0.7095   0.7276   0.7281   0.7281   0.7287
     0.7298   0.7300   0.7311   0.7313   0.7796   0.7806   0.7813   0.7822
     0.8026   0.8055   0.8109   0.8112   0.8123   0.8154   0.8283   0.8298
     0.8469   0.8472   0.8473   0.8478   0.8682   0.8705   0.8707   0.8731
     0.9246   0.9247   0.9252   0.9253   0.9573   0.9578   0.9588   0.9589
     1.0019   1.0107   1.0115   1.0117   1.0127   1.0174   1.0245   1.0266
[...]
     3.9959   4.2227   4.2235   4.2260   4.2300   4.3163   4.3263   4.3309
     4.3391   4.5105   4.5538   4.5551   4.5597   4.5615   4.5866   4.5927
     4.6512   4.7752   4.8466   4.8870   4.8925   5.0183   5.0330   5.0657
     5.1558   5.1646   5.1689   5.1710   5.2236   5.2681   5.2821   5.3019
     5.3294   5.3327   5.3399   5.3475   5.5177   5.5919   5.7278   5.7317
     5.7440   5.7452   5.7471   5.7473   5.8626   5.8739   5.8756   5.8791
     6.7769   6.7820   6.7826   6.7834   7.1053   7.1140   7.1194   7.1215
     7.1391   7.1495   7.1516   7.1521   7.2564   7.2663   7.2699   7.2720
     7.3621   7.3648   7.3656   7.3657   7.5386   7.5985   7.6084   7.6098
     7.6474   7.9004   7.9400   7.9601   7.9674   7.9846   8.0006   8.0042
     8.2263   8.2373   8.2389   8.2430   8.2453   8.2859   8.3599   8.3649
     8.8871   8.8878   8.8901   8.8908   8.9210   8.9215   8.9233   8.9236
     8.9611   8.9629   8.9647   8.9648   9.1056   9.1098   9.1178   9.1181
     9.3063   9.3249   9.3392   9.3449   9.5074   9.5305   9.5339   9.5511
     9.5615   9.5648   9.5695   9.5733   9.9261   9.9385   9.9670

     the Fermi energy is     3.3202 ev

!    total energy              =  -12707.14387583 Ry
     Harris-Foulkes estimate   =  -12707.14387584 Ry
     estimated scf accuracy    <          3.5E-09 Ry

     The total energy is the sum of the following terms:

     one-electron contribution = -109279.47788167 Ry
     hartree contribution      =   56001.12102889 Ry
     xc contribution           =   -4447.77344037 Ry
     ewald contribution        =   45025.32909691 Ry
     Dispersion Correction     =      -2.98700982 Ry
     smearing contrib. (-TS)   =      -3.35566977 Ry

     convergence has been achieved in  46 iterations

     Writing output data file gc.save

     General routines

     Parallel routines

   This run was terminated on:  19:12: 9  26Mar2017

   JOB DONE.