     Program PWSCF v.5.4.0 starts on  2Feb2017 at 22: 4:10

     Current dimensions of program PWSCF are:
     Max number of different atomic species (ntypx) = 10
     Max number of k-points (npk) =  40000
     Max angular momentum in pseudopotentials (lmaxx) =  3
     WARNING: atomic wfc #  2 for atom type 4 has zero norm
     WARNING: atomic wfc #  4 for atom type 4 has zero norm
     WARNING: atomic wfc #  5 for atom type 4 has zero norm

     Parameters for Dispersion Correction:
       atom      VdW radius       C_6

        Cu         2.952        374.666
        C_h        2.744         60.710
        C          2.744         60.710
        O          2.536         24.284
        H          1.892          4.857

     bravais-lattice index     =            0
     lattice parameter (alat)  =      13.9425  a.u.
     unit-cell volume          =   21209.0878 (a.u.)^3
     number of atoms/cell      =          150
     number of atomic types    =            5
     number of electrons       =      1299.00
     number of Kohn-Sham states=          780
     kinetic-energy cutoff     =      80.0000  Ry
     charge density cutoff     =     320.0000  Ry
     convergence threshold     =      1.0E-08
     mixing beta               =       0.7000
     number of iterations used =            8  local-TF  mixing
     Exchange-correlation      =  SLA  PW   PBE  PBE ( 1  4  3  4 0 0)

     celldm(1)=  13.942539  celldm(2)=   0.000000  celldm(3)=   0.000000
     celldm(4)=   0.000000  celldm(5)=   0.000000  celldm(6)=   0.000000

     crystal axes: (cart. coord. in units of alat)
               a(1) = (   1.000000   0.000000   0.000000 )
               a(2) = (   0.000000   2.309401   0.000000 )
               a(3) = (   0.000000   0.000000   3.388418 )

     reciprocal axes: (cart. coord. in units 2 pi/alat)
               b(1) = (  1.000000  0.000000  0.000000 )
               b(2) = (  0.000000  0.433013  0.000000 )
               b(3) = (  0.000000  0.000000  0.295123 )

     PseudoPot. # 1 for Cu read from file:
     /home/549/hxw549/Short/pseudopotentials/Cu.pbe-n-van_ak.UPF
     MD5 check sum: 601f7c30f7467666bec936e0661ce3e1
     Pseudo is Ultrasoft + core correction, Zval = 11.0
     Generated by new atomic code, or converted to UPF format
     Using radial grid of  867 points,  6 beta functions with:
                l(1) =   0
                l(2) =   0
                l(3) =   1
                l(4) =   1
                l(5) =   2
                l(6) =   2
     Q(r) pseudized with  8 coefficients,  rinner =    1.400   1.400   1.400
                                                       1.400   1.400

     PseudoPot. # 2 for C  read from file:
     /home/549/hxw549/Short/pseudopotentials/C.star1s-pbe-mt_gipaw.UPF
     MD5 check sum: ef0cb3dee31bd9e4ba2a832a2c716264
     Pseudo is Norm-conserving, Zval =  5.0
     Generated by new atomic code, or converted to UPF format
     Using radial grid of 1073 points,  1 beta functions with:
                l(1) =   0

     PseudoPot. # 3 for C  read from file:
     /home/549/hxw549/Short/pseudopotentials/C.pbe-mt_gipaw.UPF
     MD5 check sum: 5ac2f21f2c440b14befe521540822c15
     Pseudo is Norm-conserving, Zval =  4.0
     Generated by new atomic code, or converted to UPF format
     Using radial grid of 1073 points,  1 beta functions with:
                l(1) =   0

     PseudoPot. # 4 for O  read from file:
     /home/549/hxw549/Short/pseudopotentials/O.pbe-van_gipaw.UPF
     MD5 check sum: 5ce2a047509d4f331db576c963e74b29
     Pseudo is Ultrasoft, Zval =  6.0
     Generated by new atomic code, or converted to UPF format
     Using radial grid of 1095 points,  4 beta functions with:
                l(1) =   0
                l(2) =   0
                l(3) =   1
                l(4) =   1
     Q(r) pseudized with 0 coefficients

     PseudoPot. # 5 for H  read from file:
     /home/549/hxw549/Short/pseudopotentials/H.pbe-van_ak.UPF
     MD5 check sum: 077eb6d537518a38cb46c6de387227b7
     Pseudo is Ultrasoft, Zval =  1.0
     Generated by new atomic code, or converted to UPF format
     Using radial grid of  615 points,  1 beta functions with:
                l(1) =   0
     Q(r) pseudized with  8 coefficients,  rinner =    0.800

     atomic species   valence    mass     pseudopotential
        Cu            11.00    63.54600     Cu( 1.00)
        C_h            5.00    12.01070     C ( 1.00)
        C              4.00    12.01070     C ( 1.00)
        O              6.00    15.99940     O ( 1.00)
        H              1.00     1.00783     H ( 1.00)

     No symmetry found

   Cartesian axes

     site n.     atom                  positions (alat units)
         1           Cu  tau(   1) = (   0.0000278  -0.0002768   0.9972875  )
         2           Cu  tau(   2) = (   0.2500214   0.2300592   0.9964781  )
         3           Cu  tau(   3) = (   0.4999379  -0.0008021   0.9967565  )
         4           Cu  tau(   4) = (   0.7499938   0.2301066   0.9966299  )
         5           Cu  tau(   5) = (   0.0000368   0.4611612   0.9964670  )
         6           Cu  tau(   6) = (   0.2501556   0.6926513   0.9969316  )
         7           Cu  tau(   7) = (   0.5000725   0.4614195   0.9968158  )
         8           Cu  tau(   8) = (   0.7500733   0.6926077   0.9969288  )
         9           Cu  tau(   9) = (   0.0001817   0.9237007   0.9969673  )
        10           Cu  tau(  10) = (   0.2501864   1.1547399   0.9969388  )
        11           Cu  tau(  11) = (   0.5001000   0.9236813   0.9971421  )
        12           Cu  tau(  12) = (   0.7500350   1.1547883   0.9969509  )
        13           Cu  tau(  13) = (   0.0000256   1.3862740   0.9964245  )
        14           Cu  tau(  14) = (   0.2500182   1.6173874   0.9965674  )
        15           Cu  tau(  15) = (   0.5000855   1.3860092   0.9969524  )
        16           Cu  tau(  16) = (   0.7500020   1.6173469   0.9967271  )
        17           Cu  tau(  17) = (   0.0000589   1.8476413   0.9974502  )
        18           Cu  tau(  18) = (   0.2497677   2.0783648   0.9976647  )
        19           Cu  tau(  19) = (   0.4999083   1.8482307   0.9967929  )
        20           Cu  tau(  20) = (   0.7501842   2.0783708   0.9971403  )
        21           Cu  tau(  21) = (   0.0001222   0.2301461   1.2453200  )
        22           Cu  tau(  22) = (   0.2499160  -0.0003375   1.2457320  )
        23           Cu  tau(  23) = (   0.5000760   0.2296546   1.2445751  )
        24           Cu  tau(  24) = (   0.7501253  -0.0008082   1.2452774  )
        25           Cu  tau(  25) = (   0.0004560   0.6919042   1.2444398  )
        26           Cu  tau(  26) = (   0.2502604   0.4604283   1.2441641  )
        27           Cu  tau(  27) = (   0.5005290   0.6920792   1.2449013  )
        28           Cu  tau(  28) = (   0.7502594   0.4606436   1.2444322  )
        29           Cu  tau(  29) = (   0.0004845   1.1556372   1.2443765  )
        30           Cu  tau(  30) = (   0.2506070   0.9237561   1.2452404  )
        31           Cu  tau(  31) = (   0.5004996   1.1552771   1.2450168  )
        32           Cu  tau(  32) = (   0.7506209   0.9237195   1.2449593  )
        33           Cu  tau(  33) = (   0.0001889   1.6170091   1.2456247  )
        34           Cu  tau(  34) = (   0.2502719   1.3869351   1.2442606  )
        35           Cu  tau(  35) = (   0.5000476   1.6177597   1.2448016  )
        36           Cu  tau(  36) = (   0.7502719   1.3867859   1.2444933  )
        37           Cu  tau(  37) = (   0.0001297   2.0783238   1.2457288  )
        38           Cu  tau(  38) = (   0.2498837   1.8474392   1.2461817  )
        39           Cu  tau(  39) = (   0.4998735   2.0782826   1.2456599  )
        40           Cu  tau(  40) = (   0.7501762   1.8480311   1.2455042  )
        41           Cu  tau(  41) = (   0.0002718  -0.0011296   1.4951325  )
        42           Cu  tau(  42) = (   0.2502480   0.2303139   1.4952280  )
        43           Cu  tau(  43) = (   0.5000574  -0.0006898   1.4948808  )
        44           Cu  tau(  44) = (   0.7505846   0.2291334   1.4938282  )
        45           Cu  tau(  45) = (   0.0009624   0.4607787   1.4943109  )
        46           Cu  tau(  46) = (   0.2514145   0.6908209   1.4926831  )
        47           Cu  tau(  47) = (   0.5008195   0.4598745   1.4933701  )
        48           Cu  tau(  48) = (   0.7516451   0.6913243   1.4932782  )
        49           Cu  tau(  49) = (   0.0019318   0.9239193   1.4927730  )
        50           Cu  tau(  50) = (   0.2514121   1.1564455   1.4932287  )
        51           Cu  tau(  51) = (   0.5021641   0.9235540   1.4935214  )
        52           Cu  tau(  52) = (   0.7518116   1.1562283   1.4932047  )
        53           Cu  tau(  53) = (   0.0011789   1.3861859   1.4950249  )
        54           Cu  tau(  54) = (   0.2501668   1.6161289   1.4962436  )
        55           Cu  tau(  55) = (   0.5008242   1.3872970   1.4934908  )
        56           Cu  tau(  56) = (   0.7508208   1.6176916   1.4943697  )
        57           Cu  tau(  57) = (   0.0003793   1.8479269   1.4954295  )
        58           Cu  tau(  58) = (   0.2502332   2.0783539   1.4953567  )
        59           Cu  tau(  59) = (   0.5000263   1.8477072   1.4952729  )
        60           Cu  tau(  60) = (   0.7499856   2.0782028   1.4954651  )
[...]
       105           C   tau( 105) = (   0.3334301   0.0964012   2.3837630  )
       106           C   tau( 106) = (   0.3336820   0.2893218   2.3841831  )
       107           C   tau( 107) = (   0.5002537   0.0000620   2.3840475  )
       108           C   tau( 108) = (   0.5005861   0.3857862   2.3862407  )
       109           C   tau( 109) = (   0.6668225   0.0970972   2.3821103  )
       110           C   tau( 110) = (   0.6668789   0.2897006   2.3793787  )
       111           C   tau( 111) = (   0.8334847   0.0007853   2.3854227  )
       112           C   tau( 112) = (   0.8338985   0.3855644   2.3821889  )
       113           C   tau( 113) = (   0.0007087   0.6732112   2.4042444  )
       114           C   tau( 114) = (   0.0006883   0.8656023   2.4132578  )
       115           C   tau( 115) = (   0.1676172   0.5766239   2.4117145  )
       116           C   tau( 116) = (   0.1654579   0.9620878   2.4451114  )
       117           C   tau( 117) = (   0.3341007   0.6722734   2.4322949  )
       118           C   tau( 118) = (   0.3325860   0.8659509   2.4520552  )
       119           C   tau( 119) = (   0.5009673   0.5775343   2.4087855  )
       120           C_h tau( 120) = (   0.5017558   0.9623222   2.4385030  )
       121           O   tau( 121) = (   0.2791307   0.9260168   2.1070364  )
       122           H   tau( 122) = (   0.3593119   0.9331071   2.2172280  )
       123           C   tau( 123) = (   0.6676340   0.6738812   2.4034622  )
       124           C   tau( 124) = (   0.6677084   0.8654913   2.4173642  )
       125           C   tau( 125) = (   0.8341283   0.5782705   2.3892616  )
       126           C   tau( 126) = (   0.8335734   0.9617234   2.4042072  )
       127           C   tau( 127) = (   0.0003039   1.2497142   2.3939206  )
       128           C   tau( 128) = (   0.0001774   1.4424794   2.3830571  )
       129           C   tau( 129) = (   0.1667008   1.1540354   2.4176282  )
       130           C   tau( 130) = (   0.1670336   1.5388816   2.3839660  )
       131           C   tau( 131) = (   0.3339796   1.2508192   2.4128917  )
       132           C   tau( 132) = (   0.3334608   1.4424981   2.3940123  )
       133           C   tau( 133) = (   0.5014908   1.1552464   2.4213605  )
       134           C   tau( 134) = (   0.4999382   1.5390631   2.3885153  )
       135           C   tau( 135) = (   0.6672132   1.2498776   2.3964384  )
       136           C   tau( 136) = (   0.6664090   1.4424231   2.3856276  )
       137           C   tau( 137) = (   0.8339124   1.1534927   2.3972902  )
       138           C   tau( 138) = (   0.8331158   1.5383499   2.3799296  )
       139           C   tau( 139) = (  -0.0002215   1.8284265   2.3816093  )
       140           C   tau( 140) = (  -0.0001179   2.0210629   2.3863119  )
       141           C   tau( 141) = (   0.1667477   1.7318750   2.3825680  )
       142           C   tau( 142) = (   0.1664658   2.1173245   2.3871874  )
       143           C   tau( 143) = (   0.3331949   1.8285190   2.3874739  )
       144           C   tau( 144) = (   0.3333678   2.0210706   2.3878090  )
       145           C   tau( 145) = (   0.4996565   1.7319631   2.3871412  )
       146           C   tau( 146) = (   0.5000751   2.1171626   2.3880207  )
       147           C   tau( 147) = (   0.6665831   1.8281220   2.3863563  )
       148           C   tau( 148) = (   0.6665579   2.0209124   2.3873875  )
       149           C   tau( 149) = (   0.8330402   1.7312308   2.3813732  )
       150           C   tau( 150) = (   0.8334119   2.1174588   2.3867188  )

     number of k points=     6  gaussian smearing, width (Ry)=  0.1000
                       cart. coord. in units 2pi/alat
        k(    1) = (   0.0000000   0.0000000   0.0000000), wk =   0.2500000
        k(    2) = (   0.0000000  -0.2165064   0.0000000), wk =   0.2500000
        k(    3) = (   0.2500000   0.0000000   0.0000000), wk =   0.5000000
        k(    4) = (   0.2500000  -0.2165064   0.0000000), wk =   0.5000000
        k(    5) = (  -0.5000000   0.0000000   0.0000000), wk =   0.2500000
        k(    6) = (  -0.5000000  -0.2165064   0.0000000), wk =   0.2500000

     Largest allocated arrays     est. size (Mb)     dimensions
     Largest temporary arrays     est. size (Mb)     dimensions

     Initial potential from superposition of free atoms
     Check: negative starting charge=   -0.001824

     starting charge 1273.81750, renormalised to 1299.00000

     negative rho (up, down):  1.860E-03 0.000E+00
     Starting wfc are 1289 randomized atomic wfcs

     Self-consistent Calculation

     iteration #  1     ecut=    80.00 Ry     beta=0.70
     Davidson diagonalization with overlap
     c_bands:  2 eigenvalues not converged
     c_bands:  5 eigenvalues not converged
     c_bands:  3 eigenvalues not converged
     ethr =  1.00E-04,  avg # of iterations = 38.2

     negative rho (up, down):  2.820E+01 0.000E+00

     total energy              =   -9321.15207313 Ry
     Harris-Foulkes estimate   =  -17407.30203206 Ry
     estimated scf accuracy    <  185327.58195373 Ry

     iteration #  2     ecut=    80.00 Ry     beta=0.70
     Davidson diagonalization with overlap
     ethr =  1.00E-02,  avg # of iterations = 13.2

[...]

     iteration # 30     ecut=    80.00 Ry     beta=0.70
     Davidson diagonalization with overlap
     c_bands:  1 eigenvalues not converged
     ethr =  1.63E-06,  avg # of iterations = 13.3

[...]

     total energy              =  -12740.14873025 Ry
     Harris-Foulkes estimate   =  -12740.14873020 Ry
     estimated scf accuracy    <       0.00000002 Ry

     iteration # 43     ecut=    80.00 Ry     beta=0.70
     Davidson diagonalization with overlap
     ethr =  1.53E-12,  avg # of iterations =  2.7

     negative rho (up, down):  2.073E-03 0.000E+00

     End of self-consistent calculation

          k = 0.0000 0.0000 0.0000 (256287 PWs)   bands (ev):

   -17.9895 -17.1009 -16.1773 -16.0110 -15.3592 -14.9633 -14.6986 -14.5974
   -14.1974 -14.1368 -14.0607 -14.0516 -13.4028 -13.2549 -13.1009 -13.0523
   -13.0113 -12.9908 -11.6072 -11.4692 -11.4277 -11.3243 -11.1436 -10.2733
    -9.7153  -9.7042  -9.5577  -9.4669  -8.9212  -8.7328  -8.6071  -8.5301
    -7.9732  -7.8408  -7.6980  -7.5879  -7.5107  -7.5015  -7.4639  -7.4443
    -6.3603  -6.2908  -6.2755  -6.0601  -5.9711  -5.9523  -5.8860  -5.8223
    -5.7900  -5.7812  -5.4544  -5.4330  -5.0659  -4.7979  -4.7478  -4.6843
    -4.5932  -4.5717  -4.5072  -4.3686  -4.1472  -4.0957  -3.9863  -3.9562
    -3.9097  -3.8816  -3.5735  -3.5410  -3.5132  -3.4743  -3.4543  -3.4033
    -3.3656  -3.3547  -3.3438  -3.2893  -3.0923  -3.0642  -3.0478  -2.9860
    -2.9710  -2.9501  -2.9413  -2.9170  -2.8916  -2.8212  -2.7954  -2.7298
    -2.6974  -2.6725  -2.6621  -2.6478  -2.5945  -2.5446  -2.4588  -2.3274
    -2.2993  -2.2824  -2.2610  -2.1961  -2.1573  -2.1512  -2.1369  -2.1293
    -2.1194  -2.1177  -2.1163  -2.1148  -2.0214  -2.0169  -1.9971  -1.9861
    -1.9778  -1.9694  -1.9665  -1.9116  -1.8891  -1.7977  -1.7401  -1.7044
    -1.7033  -1.6867  -1.6838  -1.6500  -1.6426  -1.6294  -1.6196  -1.6186
    -1.5761  -1.5724  -1.5364  -1.5275  -1.5268  -1.5181  -1.5166  -1.5031
    -1.5000  -1.4865  -1.4817  -1.4769  -1.4401  -1.4185  -1.3762  -1.3466
    -1.3410  -1.3300  -1.3165  -1.3129  -1.3030  -1.2629  -1.2456  -1.2250
    -1.2220  -1.2141  -1.1773  -1.1744  -1.1737  -1.1565  -1.1511  -1.1303
    -1.1266  -1.0886  -1.0627  -1.0563  -1.0471  -1.0306  -1.0202  -1.0072
    -1.0034  -1.0001  -0.9886  -0.9881  -0.9870  -0.9826  -0.9656  -0.9611
    -0.9522  -0.9497  -0.9366  -0.9176  -0.9121  -0.9015  -0.8954  -0.8915
    -0.8858  -0.8800  -0.8764  -0.8602  -0.8419  -0.8299  -0.8262  -0.8216
    -0.8198  -0.8189  -0.8175  -0.8167  -0.8159  -0.8135  -0.8107  -0.8094
    -0.8075  -0.8065  -0.8061  -0.7981  -0.7911  -0.7762  -0.7644  -0.7440
    -0.7314  -0.6892  -0.6589  -0.6509  -0.6498  -0.6422  -0.6330  -0.6268
    -0.6138  -0.6060  -0.6044  -0.5847  -0.5826  -0.5741  -0.5635  -0.5621
    -0.5561  -0.5527  -0.5288  -0.5225  -0.5214  -0.5199  -0.5184  -0.5065
    -0.5036  -0.4772  -0.4583  -0.4569  -0.4064  -0.4047  -0.4016  -0.4004
    -0.3824  -0.3769  -0.3724  -0.3716  -0.3693  -0.3666  -0.3626  -0.3619
    -0.3587  -0.3519  -0.3493  -0.3465  -0.3439  -0.3402  -0.3345  -0.3314
    -0.3165  -0.3071  -0.2657  -0.2601  -0.2595  -0.2541  -0.2502  -0.2333
    -0.2275  -0.2244  -0.2229  -0.2177  -0.2153  -0.2115  -0.2073  -0.2034
    -0.1925  -0.1864  -0.1844  -0.1830  -0.1797  -0.1782  -0.1763  -0.1723
    -0.1605  -0.1598  -0.1550  -0.1476  -0.1463  -0.1449  -0.1382  -0.1238
    -0.0960  -0.0912  -0.0862  -0.0732  -0.0564  -0.0522  -0.0399  -0.0374
    -0.0335  -0.0311  -0.0250  -0.0230  -0.0222  -0.0197  -0.0141  -0.0085
    -0.0012   0.0142   0.0255   0.0280   0.0339   0.0411   0.0453   0.0549
     0.0570   0.0607   0.0618   0.0646   0.0722   0.0791   0.0845   0.0864
     0.0885   0.0894   0.0978   0.0995   0.1015   0.1072   0.1094   0.1112
     0.1253   0.1309   0.1341   0.1388   0.1477   0.1631   0.1679   0.1922
     0.1983   0.2003   0.2234   0.2246   0.2484   0.2568   0.2655   0.2712
     0.2751   0.2761   0.2841   0.2894   0.2905   0.2988   0.3087   0.3177
     0.3271   0.3328   0.3551   0.3610   0.3666   0.3699   0.3825   0.3839
     0.3848   0.3932   0.4066   0.4152   0.4191   0.4232   0.4295   0.4312
     0.4438   0.4499   0.4570   0.4626   0.4636   0.4728   0.4802   0.4869
     0.5060   0.5088   0.5187   0.5239   0.5287   0.5328   0.5397   0.5416
     0.5493   0.5514   0.5560   0.5715   0.5747   0.5771   0.5781   0.5811
     0.5826   0.5841   0.5886   0.5915   0.5941   0.5974   0.6032   0.6049
     0.6109   0.6120   0.6284   0.6415   0.6426   0.6485   0.6499   0.6657
     0.6716   0.6836   0.6851   0.6884   0.6925   0.6941   0.6964   0.7008
     0.7049   0.7140   0.7150   0.7201   0.7229   0.7293   0.7311   0.7363
     0.7391   0.7448   0.7494   0.7527   0.7561   0.7636   0.7690   0.7790
     0.7814   0.7847   0.7861   0.7882   0.7925   0.7926   0.7932   0.7957
     0.8028   0.8062   0.8156   0.8224   0.8390   0.8465   0.8488   0.8503
     0.8541   0.8664   0.8691   0.8709   0.8788   0.8887   0.8940   0.9004
     0.9067   0.9187   0.9227   0.9249   0.9318   0.9348   0.9388   0.9436
     0.9445   0.9500   0.9527   0.9657   0.9744   0.9759   0.9795   0.9831
     0.9860   0.9868   0.9971   1.0003   1.0151   1.0170   1.0186   1.0217
[...]
     4.0125   4.0211   4.0410   4.0423   4.0457   4.0484   4.0937   4.1127
     4.2060   4.2744   4.2940   4.3476   4.4164   4.4297   4.7348   4.7705
     4.8859   4.9281   4.9522   5.0401   5.3797   5.4170   5.4647   5.5120
     5.7558   5.7591   5.8440   5.8740   5.9616   5.9880   6.1865   6.3903
     6.4339   6.4445   6.4582   6.5118   6.5173   6.5382   6.6040   6.6273
     6.6852   6.7045   6.7941   6.8131   6.8144   6.8296   6.8545   6.8905
     7.0646   7.0979   7.1180   7.1740   7.2200   7.3807   7.3997   7.5288
     7.5600   7.6037   7.6240   7.7296   7.7657   7.8005   7.8236   8.0441
     8.0577   8.0876   8.1771   8.2365   8.2611   8.3238   8.3248   8.3408
     8.3607   8.3962   8.4059   8.4358   8.4430   8.4656   8.5650   8.5727
     8.6258   8.6719   8.7094   8.7201   8.7508   8.7956   8.8553   8.8557
     8.8953   8.9269   8.9327   8.9970   9.0988   9.1383   9.1457   9.1493
     9.2222   9.2710   9.3238   9.3561   9.3769   9.3926   9.4944   9.5160
     9.5336   9.6013   9.6308   9.7063   9.7235   9.7899   9.8735   9.9889
    10.0745  10.0862  10.1615  10.1940

[...]

          k = 0.2500-0.2165 0.0000 (256316 PWs)   bands (ev):

[...]

          k =-0.5000 0.0000 0.0000 (256496 PWs)   bands (ev):

[...]

          k =-0.5000-0.2165 0.0000 (256328 PWs)   bands (ev):

   -17.9782 -17.0128 -15.8641 -15.7551 -15.7340 -15.3266 -15.1404 -15.0786
   -15.0345 -13.9906 -13.7704 -13.6402 -13.5983 -12.6033 -12.3823 -11.9389
   -11.9334 -11.8646 -11.7074 -11.6086 -11.5291 -11.4689 -11.4639 -11.3571
   -11.3363  -9.9659  -9.9546  -9.7089  -9.6631  -9.1581  -8.8520  -8.7215
    -8.6977  -8.2144  -8.1704  -7.9628  -7.9444  -6.4771  -6.3317  -6.2697
    -6.0660  -5.8963  -5.7766  -5.5579  -5.3110  -5.2556  -5.2421  -5.1588
    -5.1497  -5.1465  -5.1340  -5.1115  -4.9538  -4.9443  -4.5406  -4.4522
    -4.3267  -4.3110  -4.2883  -4.2841  -4.1980  -4.1974  -4.1759  -4.1605
    -4.1591  -4.1486  -4.0292  -3.9768  -3.8358  -3.8237  -3.8161  -3.8046
    -3.6956  -3.6894  -3.6717  -3.6361  -3.6201  -3.5567  -3.5484  -3.5366
    -3.4472  -3.4034  -3.1540  -3.0580  -3.0479  -3.0203  -2.9963  -2.7398
    -2.5761  -2.5570  -2.5429  -2.5408  -2.5337  -2.5133  -2.4887  -2.4735
    -2.4487  -2.3579  -2.3327  -2.3014  -2.1244  -2.1057  -2.0686  -2.0583
    -2.0433  -2.0341  -1.9994  -1.9911  -1.9700  -1.9616  -1.9516  -1.9118
    -1.8409  -1.7701  -1.7690  -1.7652  -1.7554  -1.6891  -1.6288  -1.5779
    -1.5214  -1.4840  -1.4638  -1.4633  -1.4606  -1.4563  -1.4542  -1.4482
    -1.4188  -1.4153  -1.4042  -1.3966  -1.3943  -1.3941  -1.3920  -1.3711
    -1.3535  -1.3532  -1.3502  -1.3485  -1.3454  -1.3444  -1.3411  -1.3244
    -1.3222  -1.3217  -1.3208  -1.3001  -1.2742  -1.2714  -1.2680  -1.2531
    -1.2495  -1.2022  -1.1902  -1.1835  -1.1617  -1.1558  -1.1551  -1.1543
    -1.1495  -1.1385  -1.1322  -1.1150  -1.1122  -1.0860  -1.0837  -1.0828
    -1.0807  -1.0779  -1.0761  -1.0688  -1.0682  -1.0639  -1.0597  -1.0270
    -1.0237  -1.0230  -1.0184  -1.0177  -1.0150  -1.0089  -1.0069  -1.0047
    -1.0025  -1.0011  -0.9994  -0.9938  -0.9913  -0.9833  -0.9795  -0.9679
    -0.8573  -0.8464  -0.8430  -0.8238  -0.8199  -0.8189  -0.8163  -0.7810
    -0.7567  -0.7501  -0.7446  -0.7392  -0.7333  -0.7314  -0.7281  -0.7264
    -0.7216  -0.7181  -0.7118  -0.7086  -0.6716  -0.6655  -0.6644  -0.6583
    -0.6518  -0.6504  -0.6455  -0.6443  -0.6348  -0.6256  -0.6233  -0.6131
    -0.5691  -0.5460  -0.5348  -0.5327  -0.5286  -0.5273  -0.5256  -0.4936
    -0.4728  -0.4691  -0.4528  -0.4386  -0.4153  -0.4137  -0.4125  -0.4114
    -0.3997  -0.3947  -0.3919  -0.3863  -0.3843  -0.3654  -0.3630  -0.3603
    -0.3576  -0.3551  -0.3474  -0.3417  -0.3346  -0.3240  -0.3080  -0.2923
    -0.2481  -0.2417  -0.2387  -0.2344  -0.2298  -0.2199  -0.2191  -0.2182
    -0.2154  -0.2030  -0.2008  -0.1994  -0.1684  -0.1396  -0.1332  -0.1283
    -0.1245  -0.1189  -0.1161  -0.1124  -0.1117  -0.1098  -0.1031  -0.1027
    -0.0747  -0.0734  -0.0731  -0.0683  -0.0671  -0.0655  -0.0606  -0.0586
    -0.0551  -0.0545  -0.0536  -0.0494  -0.0215  -0.0060  -0.0038   0.0053
     0.0123   0.0208   0.0282   0.0412   0.0468   0.0639   0.0796   0.0848
     0.0916   0.0991   0.1050   0.1080   0.1118   0.1145   0.1164   0.1185
     0.1204   0.1234   0.1254   0.1262   0.1288   0.1329   0.1334   0.1368
     0.1392   0.1433   0.1443   0.1483   0.1488   0.1513   0.1520   0.1573
     0.1615   0.1626   0.1656   0.1712   0.1871   0.1918   0.1920   0.1926
     0.1964   0.1977   0.2052   0.2128   0.2223   0.2360   0.2496   0.2505
     0.2588   0.2702   0.2770   0.2783   0.2894   0.3101   0.3166   0.3412
     0.3511   0.3570   0.3622   0.3650   0.3669   0.3738   0.3767   0.3817
     0.3870   0.3881   0.3891   0.3930   0.3957   0.3984   0.3987   0.4047
     0.4057   0.4063   0.4105   0.4138   0.4186   0.4214   0.4255   0.4328
     0.4370   0.4416   0.4448   0.4524   0.4644   0.4649   0.4753   0.4799
     0.4872   0.5071   0.5104   0.5110   0.5136   0.5144   0.5250   0.5274
     0.5357   0.5437   0.5460   0.5502   0.5538   0.5578   0.5579   0.5674
     0.5746   0.5833   0.5872   0.5902   0.5961   0.5990   0.6045   0.6076
     0.6106   0.6113   0.6151   0.6180   0.6194   0.6222   0.6243   0.6283
     0.6299   0.6316   0.6328   0.6410   0.6468   0.6633   0.6808   0.6876
     0.6931   0.7068   0.7150   0.7163   0.7184   0.7206   0.7260   0.7293
     0.7301   0.7318   0.7397   0.7414   0.7501   0.7521   0.7596   0.7617
     0.7660   0.7667   0.7720   0.7728   0.7742   0.7749   0.7752   0.7990
     0.8126   0.8219   0.8244   0.8273   0.8349   0.8419   0.8542   0.8549
     0.8608   0.8687   0.8769   0.8864   0.8901   0.8913   0.8955   0.8971
     0.9071   0.9121   0.9156   0.9445   0.9588   0.9671   0.9732   0.9776
     0.9816   1.0017   1.0072   1.0195   1.0263   1.0367   1.0413   1.0463
[...]
     4.3129   4.3623   4.3771   4.3963   4.4210   4.5459   4.5740   4.5743
     4.5965   4.6311   4.7022   4.7205   4.7880   4.8713   4.8792   4.9394
     4.9607   5.0531   5.0822   5.1118   5.1930   5.2011   5.2113   5.2391
     5.2714   5.2986   5.3216   5.3802   5.4201   5.4621   5.5125   5.5437
     5.6033   5.6964   5.7546   5.7677   5.7770   5.7883   5.7967   5.8783
     5.9072   5.9255   5.9415   6.3236   6.7877   6.8185   6.8415   6.8451
     7.1251   7.1543   7.1621   7.1646   7.1873   7.2263   7.2505   7.2719
     7.3000   7.3295   7.3463   7.3857   7.4119   7.4285   7.4463   7.5010
     7.5343   7.6542   7.6782   7.7637   7.7826   7.8723   7.8916   7.9649
     7.9892   8.0643   8.1460   8.1875   8.2425   8.2552   8.2970   8.3396
     8.3905   8.3969   8.4319   8.5988   8.9182   8.9300   8.9322   8.9651
     8.9665   8.9681   8.9735   8.9810   9.0015   9.0471   9.0651   9.1414
     9.1515   9.1578   9.1588   9.2191   9.3443   9.3490   9.3744   9.3938
     9.4942   9.5581   9.5766   9.5909   9.6188   9.6741   9.7300   9.7457
     9.9604   9.9986  10.0007  10.0036

     the Fermi energy is     3.3662 ev

!    total energy              =  -12740.14873032 Ry
     Harris-Foulkes estimate   =  -12740.14873026 Ry
     estimated scf accuracy    <          9.9E-09 Ry

     The total energy is the sum of the following terms:

     one-electron contribution = -109494.40812448 Ry
     hartree contribution      =   56113.67164808 Ry
     xc contribution           =   -4455.62154413 Ry
     ewald contribution        =   45102.56087558 Ry
     Dispersion Correction     =      -2.99769418 Ry
     smearing contrib. (-TS)   =      -3.35389119 Ry

     convergence has been achieved in  43 iterations

     Writing output data file gc.save

     General routines

     Parallel routines

   This run was terminated on:   1:38:43   3Feb2017

   JOB DONE.