     Program PWSCF v.5.4.0 starts on 26Mar2017 at 15:18:45

     Current dimensions of program PWSCF are:
     Max number of different atomic species (ntypx) = 10
     Max number of k-points (npk) =  40000
     Max angular momentum in pseudopotentials (lmaxx) =  3

     Parameters for Dispersion Correction:
       atom      VdW radius       C_6

        Cu         2.952        374.666
        C_h        2.744         60.710
        C          2.744         60.710

     bravais-lattice index     =            0
     lattice parameter (alat)  =      13.9425  a.u.
     unit-cell volume          =   21209.0878 (a.u.)^3
     number of atoms/cell      =          148
     number of atomic types    =            3
     number of electrons       =      1292.00
     number of Kohn-Sham states=          775
     kinetic-energy cutoff     =      80.0000  Ry
     charge density cutoff     =     320.0000  Ry
     convergence threshold     =      1.0E-08
     mixing beta               =       0.7000
     number of iterations used =            8  local-TF  mixing
     Exchange-correlation      =  SLA  PW   PBX  PBC ( 1  4  3  4 0 0)

     celldm(1)=  13.942539  celldm(2)=   0.000000  celldm(3)=   0.000000
     celldm(4)=   0.000000  celldm(5)=   0.000000  celldm(6)=   0.000000

     crystal axes: (cart. coord. in units of alat)
               a(1) = (   1.000000   0.000000   0.000000 )
               a(2) = (   0.000000   2.309401   0.000000 )
               a(3) = (   0.000000   0.000000   3.388418 )

     reciprocal axes: (cart. coord. in units 2 pi/alat)
               b(1) = (  1.000000  0.000000  0.000000 )
               b(2) = (  0.000000  0.433013  0.000000 )
               b(3) = (  0.000000  0.000000  0.295123 )

     PseudoPot. # 1 for Cu read from file:
     /home/549/hxw549/Short/pseudopotentials/Cu.pbe-n-van_ak.UPF
     MD5 check sum: 601f7c30f7467666bec936e0661ce3e1
     Pseudo is Ultrasoft + core correction, Zval = 11.0
     Generated by new atomic code, or converted to UPF format
     Using radial grid of  867 points,  6 beta functions with:
                l(1) =   0
                l(2) =   0
                l(3) =   1
                l(4) =   1
                l(5) =   2
                l(6) =   2
     Q(r) pseudized with  8 coefficients,  rinner =    1.400   1.400   1.400
                                                       1.400   1.400

     PseudoPot. # 2 for C  read from file:
     /home/549/hxw549/Short/pseudopotentials/C.star1s-pbe-mt_gipaw.UPF
     MD5 check sum: ef0cb3dee31bd9e4ba2a832a2c716264
     Pseudo is Norm-conserving, Zval =  5.0
     Generated by new atomic code, or converted to UPF format
     Using radial grid of 1073 points,  1 beta functions with:
                l(1) =   0

     PseudoPot. # 3 for C  read from file:
     /home/549/hxw549/Short/pseudopotentials/C.pbe-mt_gipaw.UPF
     MD5 check sum: 5ac2f21f2c440b14befe521540822c15
     Pseudo is Norm-conserving, Zval =  4.0
     Generated by new atomic code, or converted to UPF format
     Using radial grid of 1073 points,  1 beta functions with:
                l(1) =   0

     atomic species   valence    mass     pseudopotential
        Cu            11.00    63.54600     Cu( 1.00)
        C_h            5.00    12.01070     C ( 1.00)
        C              4.00    12.01070     C ( 1.00)

     No symmetry found

   Cartesian axes

     site n.     atom                  positions (alat units)
         1           Cu  tau(   1) = (   0.0000000   0.0000567   0.9971194  )
         2           Cu  tau(   2) = (   0.2499927   0.2309760   0.9972946  )
         3           Cu  tau(   3) = (   0.5000000   0.0000313   0.9971490  )
         4           Cu  tau(   4) = (   0.7500073   0.2309760   0.9972946  )
         5           Cu  tau(   5) = (   0.0000000   0.4618437   0.9973425  )
         6           Cu  tau(   6) = (   0.2499840   0.6927701   0.9971914  )
         7           Cu  tau(   7) = (   0.5000000   0.4618722   0.9973119  )
         8           Cu  tau(   8) = (   0.7500160   0.6927701   0.9971914  )
         9           Cu  tau(   9) = (   0.0000000   0.9237521   0.9970621  )
        10           Cu  tau(  10) = (   0.2500157   1.1547420   0.9971373  )
        11           Cu  tau(  11) = (   0.5000000   0.9237453   0.9970727  )
        12           Cu  tau(  12) = (   0.7499843   1.1547420   0.9971373  )
        13           Cu  tau(  13) = (   0.0000000   1.3856555   0.9972830  )
        14           Cu  tau(  14) = (   0.2500029   1.6165618   0.9973242  )
        15           Cu  tau(  15) = (   0.5000000   1.3857014   0.9973005  )
        16           Cu  tau(  16) = (   0.7499971   1.6165618   0.9973242  )
        17           Cu  tau(  17) = (   0.0000000   1.8474941   0.9971969  )
        18           Cu  tau(  18) = (   0.2500043   2.0784518   0.9970745  )
        19           Cu  tau(  19) = (   0.5000000   1.8474499   0.9971773  )
        20           Cu  tau(  20) = (   0.7499957   2.0784518   0.9970745  )
        21           Cu  tau(  21) = (   0.0000000   0.2308065   1.2457643  )
        22           Cu  tau(  22) = (   0.2499892  -0.0001010   1.2455764  )
        23           Cu  tau(  23) = (   0.5000000   0.2308938   1.2456746  )
        24           Cu  tau(  24) = (   0.7500108  -0.0001010   1.2455764  )
        25           Cu  tau(  25) = (   0.0000000   0.6929786   1.2456406  )
        26           Cu  tau(  26) = (   0.2499874   0.4619293   1.2457459  )
        27           Cu  tau(  27) = (   0.5000000   0.6929012   1.2456074  )
        28           Cu  tau(  28) = (   0.7500126   0.4619293   1.2457459  )
        29           Cu  tau(  29) = (   0.0000000   1.1546142   1.2455676  )
        30           Cu  tau(  30) = (   0.2499981   0.9237849   1.2455149  )
        31           Cu  tau(  31) = (   0.5000000   1.1545763   1.2455800  )
        32           Cu  tau(  32) = (   0.7500019   0.9237849   1.2455149  )
        33           Cu  tau(  33) = (   0.0000000   1.6166029   1.2456910  )
        34           Cu  tau(  34) = (   0.2500161   1.3855492   1.2457134  )
        35           Cu  tau(  35) = (   0.5000000   1.6166555   1.2458019  )
        36           Cu  tau(  36) = (   0.7499839   1.3855492   1.2457134  )
        37           Cu  tau(  37) = (   0.0000000   2.0784993   1.2455162  )
        38           Cu  tau(  38) = (   0.2500161   1.8476387   1.2456210  )
        39           Cu  tau(  39) = (   0.5000000   2.0784755   1.2455152  )
        40           Cu  tau(  40) = (   0.7499839   1.8476387   1.2456210  )
        41           Cu  tau(  41) = (   0.0000000  -0.0003182   1.4954305  )
        42           Cu  tau(  42) = (   0.2500224   0.2307186   1.4951678  )
        43           Cu  tau(  43) = (   0.5000000  -0.0002059   1.4952775  )
        44           Cu  tau(  44) = (   0.7499776   0.2307186   1.4951678  )
        45           Cu  tau(  45) = (   0.0000000   0.4620254   1.4950571  )
        46           Cu  tau(  46) = (   0.2500339   0.6931225   1.4952807  )
        47           Cu  tau(  47) = (   0.5000000   0.4619896   1.4952144  )
        48           Cu  tau(  48) = (   0.7499661   0.6931225   1.4952807  )
        49           Cu  tau(  49) = (   0.0000000   0.9238798   1.4954544  )
        50           Cu  tau(  50) = (   0.2499708   1.1544329   1.4953374  )
        51           Cu  tau(  51) = (   0.5000000   0.9237633   1.4954072  )
        52           Cu  tau(  52) = (   0.7500292   1.1544329   1.4953374  )
        53           Cu  tau(  53) = (   0.0000000   1.3854453   1.4952066  )
        54           Cu  tau(  54) = (   0.2499861   1.6167017   1.4951298  )
        55           Cu  tau(  55) = (   0.5000000   1.3853760   1.4951346  )
        56           Cu  tau(  56) = (   0.7500139   1.6167017   1.4951298  )
        57           Cu  tau(  57) = (   0.0000000   1.8477718   1.4952308  )
        58           Cu  tau(  58) = (   0.2499930   2.0785254   1.4954090  )
        59           Cu  tau(  59) = (   0.5000000   1.8478762   1.4953503  )
        60           Cu  tau(  60) = (   0.7500070   2.0785254   1.4954090  )
[...]
       118           C   tau( 118) = (   0.3332031   0.8660537   2.3866148  )
       119           C   tau( 119) = (   0.5000000   0.5773685   2.3848465  )
       120           C   tau( 120) = (   0.5000000   0.9623380   2.3860825  )
       121           C   tau( 121) = (   0.6667906   0.6735984   2.3858047  )
       122           C   tau( 122) = (   0.6667969   0.8660537   2.3866148  )
       123           C   tau( 123) = (   0.8335241   0.5773226   2.3882842  )
       124           C   tau( 124) = (   0.8332572   0.9622141   2.3870264  )
       125           C   tau( 125) = (   0.0000000   1.2508867   2.3852683  )
       126           C   tau( 126) = (   0.0000000   1.4433300   2.3840871  )
       127           C   tau( 127) = (   0.1667360   1.1546708   2.3859697  )
       128           C   tau( 128) = (   0.1668939   1.5396104   2.3857176  )
       129           C   tau( 129) = (   0.3335095   1.2509657   2.3878953  )
       130           C   tau( 130) = (   0.3334866   1.4433958   2.3886602  )
       131           C   tau( 131) = (   0.5000000   1.1547731   2.3885512  )
       132           C   tau( 132) = (   0.5000000   1.5396099   2.3901428  )
       133           C_h tau( 133) = (   0.6664905   1.2509657   2.3878953  )
       134           C   tau( 134) = (   0.6665134   1.4433958   2.3886602  )
       135           C   tau( 135) = (   0.8332640   1.1546708   2.3859697  )
       136           C   tau( 136) = (   0.8331061   1.5396104   2.3857176  )
       137           C   tau( 137) = (   0.0000000   1.8283510   2.3842019  )
       138           C   tau( 138) = (   0.0000000   2.0207949   2.3863399  )
       139           C   tau( 139) = (   0.1668959   1.7320513   2.3858703  )
       140           C   tau( 140) = (   0.1666186   2.1169980   2.3865340  )
       141           C   tau( 141) = (   0.3334155   1.8282368   2.3882160  )
       142           C   tau( 142) = (   0.3334352   2.0206763   2.3869561  )
       143           C   tau( 143) = (   0.5000000   1.7319961   2.3895398  )
       144           C   tau( 144) = (   0.5000000   2.1168754   2.3870198  )
       145           C   tau( 145) = (   0.6665845   1.8282368   2.3882160  )
       146           C   tau( 146) = (   0.6665648   2.0206763   2.3869561  )
       147           C   tau( 147) = (   0.8331041   1.7320513   2.3858703  )
       148           C   tau( 148) = (   0.8333814   2.1169980   2.3865340  )

     number of k points=     6  gaussian smearing, width (Ry)=  0.1000
                       cart. coord. in units 2pi/alat
        k(    1) = (   0.0000000   0.0000000   0.0000000), wk =   0.2500000
        k(    2) = (   0.0000000  -0.2165064   0.0000000), wk =   0.2500000
        k(    3) = (   0.2500000   0.0000000   0.0000000), wk =   0.5000000
        k(    4) = (   0.2500000  -0.2165064   0.0000000), wk =   0.5000000
        k(    5) = (  -0.5000000   0.0000000   0.0000000), wk =   0.2500000
        k(    6) = (  -0.5000000  -0.2165064   0.0000000), wk =   0.2500000

     Largest allocated arrays     est. size (Mb)     dimensions
     Largest temporary arrays     est. size (Mb)     dimensions

     Initial potential from superposition of free atoms
     Check: negative starting charge=   -0.001842

     starting charge 1266.81751, renormalised to 1292.00000

     negative rho (up, down):  1.879E-03 0.000E+00
     Starting wfc are 1284 randomized atomic wfcs

     Self-consistent Calculation

     iteration #  1     ecut=    80.00 Ry     beta=0.70
     Davidson diagonalization with overlap
     c_bands:  4 eigenvalues not converged
     ethr =  1.00E-04,  avg # of iterations = 33.3

     negative rho (up, down):  2.726E+01 0.000E+00

     total energy              =   -9472.08545521 Ry
     Harris-Foulkes estimate   =  -17311.07086646 Ry
     estimated scf accuracy    <  180161.01480933 Ry

     iteration #  2     ecut=    80.00 Ry     beta=0.70
     Davidson diagonalization with overlap
     ethr =  1.00E-02,  avg # of iterations = 12.3

[...]

     iteration # 39     ecut=    80.00 Ry     beta=0.70
     Davidson diagonalization with overlap
     c_bands:  1 eigenvalues not converged
     c_bands:  1 eigenvalues not converged
     ethr =  5.72E-09,  avg # of iterations = 12.3

[...]

     total energy              =  -12707.14485316 Ry
     Harris-Foulkes estimate   =  -12707.14485317 Ry
     estimated scf accuracy    <       0.00000001 Ry

     iteration # 48     ecut=    80.00 Ry     beta=0.70
     Davidson diagonalization with overlap
     ethr =  7.86E-13,  avg # of iterations =  2.0

     negative rho (up, down):  2.115E-03 0.000E+00

     End of self-consistent calculation

          k = 0.0000 0.0000 0.0000 (256287 PWs)   bands (ev):

   -17.2841 -16.2339 -16.0884 -15.4315 -15.0442 -14.7931 -14.6905 -14.2538
   -14.1973 -14.1412 -14.1237 -13.4669 -13.3243 -13.1548 -13.1238 -13.0859
   -13.0819 -11.6720 -11.5335 -11.4855 -11.3887 -11.2066 -10.3539  -9.7719
    -9.7613  -9.6277  -9.5231  -8.9889  -8.7991  -8.6732  -8.6027  -8.0495
    -7.9037  -7.7614  -7.6372  -7.5835  -7.5729  -7.5371  -7.5250  -6.3588
    -6.3513  -6.1258  -6.0219  -6.0210  -5.9486  -5.8906  -5.8594  -5.8444
    -5.4984  -5.4835  -5.3009  -4.8901  -4.8419  -4.7986  -4.6369  -4.6210
    -4.5832  -4.4257  -4.2576  -4.1468  -3.9890  -3.9875  -3.9700  -3.9509
    -3.6183  -3.5501  -3.5334  -3.5209  -3.4210  -3.4184  -3.4065  -3.4000
    -3.2768  -3.1872  -3.1224  -3.0613  -3.0160  -3.0082  -3.0057  -3.0056
    -2.9927  -2.8583  -2.8357  -2.8005  -2.7809  -2.7434  -2.7403  -2.7394
    -2.7196  -2.7128  -2.5335  -2.4326  -2.3772  -2.3765  -2.3391  -2.3359
    -2.1941  -2.1918  -2.1818  -2.1777  -2.1518  -2.1516  -2.1515  -2.1514
    -2.1126  -2.0786  -2.0781  -2.0362  -2.0208  -2.0208  -2.0207  -2.0203
    -1.9605  -1.8415  -1.7767  -1.7424  -1.7385  -1.7377  -1.7374  -1.7021
    -1.6927  -1.6713  -1.6582  -1.6564  -1.6117  -1.5986  -1.5892  -1.5737
    -1.5636  -1.5620  -1.5587  -1.5539  -1.5394  -1.5345  -1.5341  -1.5152
    -1.5137  -1.4550  -1.4407  -1.4269  -1.4154  -1.3849  -1.3818  -1.3774
    -1.3702  -1.3526  -1.2986  -1.2930  -1.2634  -1.2619  -1.2502  -1.2113
    -1.2110  -1.1915  -1.1894  -1.1742  -1.1667  -1.1637  -1.1309  -1.1192
    -1.1109  -1.1065  -1.0491  -1.0466  -1.0355  -1.0288  -1.0265  -1.0247
    -1.0244  -1.0216  -1.0203  -1.0154  -1.0152  -0.9979  -0.9964  -0.9810
    -0.9514  -0.9409  -0.9389  -0.9344  -0.9231  -0.9183  -0.9177  -0.9168
    -0.8985  -0.8591  -0.8580  -0.8567  -0.8559  -0.8553  -0.8538  -0.8534
    -0.8527  -0.8523  -0.8511  -0.8479  -0.8479  -0.8476  -0.8454  -0.8425
    -0.8416  -0.8318  -0.8295  -0.8271  -0.8220  -0.7853  -0.6894  -0.6893
    -0.6865  -0.6829  -0.6827  -0.6598  -0.6583  -0.6412  -0.6410  -0.6194
    -0.6192  -0.6047  -0.6042  -0.6029  -0.6024  -0.5874  -0.5640  -0.5636
    -0.5615  -0.5610  -0.5534  -0.5527  -0.5420  -0.5415  -0.4919  -0.4917
    -0.4378  -0.4376  -0.4273  -0.4258  -0.4254  -0.4242  -0.4103  -0.4101
    -0.4047  -0.4043  -0.4040  -0.4038  -0.3996  -0.3994  -0.3847  -0.3847
    -0.3832  -0.3766  -0.3750  -0.3744  -0.3507  -0.3501  -0.2998  -0.2975
    -0.2963  -0.2908  -0.2906  -0.2641  -0.2641  -0.2640  -0.2640  -0.2493
    -0.2470  -0.2464  -0.2421  -0.2421  -0.2225  -0.2212  -0.2197  -0.2192
    -0.2147  -0.2141  -0.2139  -0.2138  -0.2114  -0.2083  -0.1928  -0.1898
    -0.1890  -0.1877  -0.1871  -0.1678  -0.1204  -0.1198  -0.1181  -0.1175
    -0.1151  -0.0738  -0.0709  -0.0694  -0.0680  -0.0677  -0.0621  -0.0617
    -0.0615  -0.0614  -0.0613  -0.0536  -0.0470  -0.0344  -0.0102  -0.0090
    -0.0078  -0.0074   0.0013   0.0183   0.0213   0.0217   0.0220   0.0269
     0.0304   0.0459   0.0464   0.0479   0.0483   0.0492   0.0499   0.0634
     0.0639   0.0641   0.0643   0.0696   0.0766   0.0770   0.0787   0.1009
     0.1017   0.1286   0.1355   0.1366   0.1581   0.1647   0.1652   0.1898
     0.1936   0.2333   0.2383   0.2387   0.2388   0.2401   0.2436   0.2484
     0.2696   0.2735   0.2741   0.2744   0.2749   0.2844   0.2848   0.2958
     0.3267   0.3411   0.3411   0.3454   0.3499   0.3505   0.3510   0.3778
     0.3831   0.3841   0.3843   0.3847   0.3991   0.4141   0.4155   0.4230
     0.4232   0.4366   0.4387   0.4396   0.4405   0.4777   0.4797   0.4947
     0.4953   0.4969   0.4972   0.4975   0.5093   0.5235   0.5300   0.5314
     0.5340   0.5353   0.5358   0.5360   0.5377   0.5399   0.5473   0.5475
     0.5492   0.5532   0.5545   0.5557   0.5638   0.5644   0.5898   0.5960
     0.6060   0.6061   0.6165   0.6168   0.6492   0.6499   0.6500   0.6509
     0.6530   0.6534   0.6536   0.6544   0.6653   0.6656   0.6742   0.6785
     0.6793   0.6797   0.6803   0.6877   0.6879   0.6974   0.6984   0.7042
     0.7202   0.7207   0.7212   0.7226   0.7309   0.7328   0.7430   0.7465
     0.7486   0.7488   0.7488   0.7525   0.7563   0.7574   0.7580   0.7614
     0.7687   0.7719   0.8062   0.8063   0.8166   0.8178   0.8240   0.8243
     0.8249   0.8253   0.8559   0.8566   0.8700   0.8711   0.8765   0.8765
     0.8911   0.8913   0.9001   0.9009   0.9010   0.9025   0.9094   0.9226
     0.9368   0.9379   0.9394   0.9424   0.9429   0.9438   0.9580   0.9631
     0.9725   0.9780   0.9861   0.9863   0.9973   1.0035   1.0061   1.0107
[...]
     3.8522   3.8539   3.8558   3.8933   3.9676   3.9755   3.9902   4.0024
     4.0086   4.0088   4.0094   4.0128   4.0147   4.2328   4.2483   4.2509
     4.2527   4.3749   4.4017   4.6526   4.7655   4.8545   4.8687   4.9219
     5.3050   5.3912   5.3981   5.4072   5.7044   5.7106   5.7219   5.7260
     5.9195   5.9295   6.2031   6.3462   6.3488   6.4070   6.4179   6.4715
     6.4754   6.4781   6.4907   6.5826   6.5993   6.6088   6.7136   6.7632
     6.7784   6.7930   6.8025   6.8272   7.0062   7.0427   7.0519   7.0635
     7.0698   7.0928   7.3557   7.3590   7.5102   7.5488   7.5501   7.6947
     7.6967   7.7094   7.7116   8.0016   8.0390   8.0813   8.1532   8.2026
     8.2154   8.2998   8.3059   8.3068   8.3354   8.3374   8.3523   8.3858
     8.4058   8.4484   8.5019   8.5456   8.5636   8.5705   8.6639   8.6659
     8.6680   8.6704   8.8142   8.8161   8.8297   8.8337   8.8390   8.8404
     9.1080   9.1100   9.1112   9.1161   9.1198   9.1409   9.1741   9.3200
     9.3443   9.3502   9.4193   9.4805   9.4901   9.5776   9.5785   9.6622
     9.6705   9.8202   9.8312  10.0435  10.0441  10.1167  10.1455

[...]

          k = 0.2500-0.2165 0.0000 (256316 PWs)   bands (ev):

[...]

          k =-0.5000 0.0000 0.0000 (256496 PWs)   bands (ev):

[...]

          k =-0.5000-0.2165 0.0000 (256328 PWs)   bands (ev):

   -17.1715 -15.9794 -15.8209 -15.7946 -15.3901 -15.2204 -15.1505 -15.1145
   -14.0588 -13.8413 -13.7092 -13.6734 -12.6833 -12.4594 -12.0027 -11.9968
   -11.9225 -11.7751 -11.6721 -11.5890 -11.5426 -11.5370 -11.4232 -11.4048
   -10.0449 -10.0390  -9.7697  -9.7239  -9.2276  -8.9152  -8.7998  -8.7580
    -8.2700  -8.2324  -8.0220  -8.0000  -6.5350  -6.3459  -6.1244  -5.9497
    -5.8384  -5.6282  -5.3885  -5.3142  -5.3057  -5.2227  -5.2128  -5.1816
    -5.1796  -5.1792  -5.0210  -5.0025  -4.9493  -4.5129  -4.3917  -4.3511
    -4.3295  -4.3174  -4.2647  -4.2147  -4.2013  -4.1983  -4.1976  -4.1972
    -4.0825  -4.0766  -3.9160  -3.8799  -3.8640  -3.8572  -3.7546  -3.7471
    -3.7041  -3.6912  -3.6040  -3.5921  -3.5843  -3.4877  -3.4660  -3.4563
    -3.1733  -3.0871  -3.0722  -3.0619  -2.6364  -2.5833  -2.5809  -2.5789
    -2.5787  -2.5783  -2.5448  -2.5284  -2.5235  -2.5229  -2.4097  -2.3535
    -2.1628  -2.1559  -2.1094  -2.1004  -2.0966  -2.0954  -2.0540  -2.0501
    -2.0208  -2.0177  -2.0170  -2.0122  -1.9366  -1.8031  -1.8026  -1.8018
    -1.8016  -1.7724  -1.7384  -1.7285  -1.5689  -1.5238  -1.5091  -1.5019
    -1.4933  -1.4932  -1.4932  -1.4932  -1.4590  -1.4562  -1.4537  -1.4534
    -1.4335  -1.4332  -1.4331  -1.4330  -1.3840  -1.3839  -1.3838  -1.3835
    -1.3821  -1.3819  -1.3815  -1.3813  -1.3584  -1.3584  -1.3582  -1.3582
    -1.3088  -1.3084  -1.3073  -1.3070  -1.3026  -1.2380  -1.2332  -1.2325
    -1.2323  -1.1908  -1.1908  -1.1906  -1.1906  -1.1733  -1.1711  -1.1707
    -1.1705  -1.1281  -1.1218  -1.1215  -1.1215  -1.1169  -1.1155  -1.1155
    -1.1154  -1.1125  -1.0961  -1.0922  -1.0918  -1.0903  -1.0571  -1.0569
    -1.0566  -1.0565  -1.0403  -1.0400  -1.0399  -1.0398  -1.0371  -1.0369
    -1.0366  -1.0364  -1.0349  -1.0159  -0.8826  -0.8821  -0.8818  -0.8816
    -0.8534  -0.8527  -0.8524  -0.8524  -0.8038  -0.7708  -0.7698  -0.7697
    -0.7694  -0.7689  -0.7676  -0.7672  -0.7625  -0.7618  -0.7613  -0.7611
    -0.7051  -0.7001  -0.7000  -0.6997  -0.6930  -0.6889  -0.6883  -0.6875
    -0.6735  -0.6674  -0.6670  -0.6668  -0.6436  -0.5825  -0.5718  -0.5711
    -0.5680  -0.5669  -0.5663  -0.5661  -0.5050  -0.4982  -0.4977  -0.4976
    -0.4935  -0.4492  -0.4485  -0.4484  -0.4463  -0.4281  -0.4278  -0.4274
    -0.4272  -0.4095  -0.4000  -0.3993  -0.3890  -0.3890  -0.3882  -0.3882
    -0.3766  -0.3514  -0.3484  -0.3471  -0.3238  -0.2736  -0.2734  -0.2729
    -0.2728  -0.2574  -0.2574  -0.2568  -0.2568  -0.2415  -0.2400  -0.2399
    -0.2381  -0.1598  -0.1586  -0.1584  -0.1573  -0.1533  -0.1530  -0.1529
    -0.1527  -0.1517  -0.1494  -0.1493  -0.1472  -0.1125  -0.1124  -0.1123
    -0.1123  -0.1010  -0.0998  -0.0994  -0.0991  -0.0958  -0.0957  -0.0956
    -0.0953  -0.0686  -0.0272  -0.0265  -0.0255  -0.0252  -0.0006   0.0000
     0.0022   0.0030   0.0486   0.0505   0.0530   0.0551   0.0615   0.0663
     0.0794   0.0796   0.0805   0.0809   0.0844   0.0869   0.0880   0.0886
     0.0891   0.0909   0.0934   0.0942   0.1002   0.1006   0.1012   0.1013
     0.1064   0.1065   0.1066   0.1067   0.1187   0.1230   0.1233   0.1233
     0.1390   0.1511   0.1512   0.1513   0.1513   0.1605   0.1615   0.1617
     0.1641   0.2098   0.2107   0.2113   0.2114   0.2310   0.2438   0.2440
     0.2445   0.2508   0.2806   0.3016   0.3113   0.3204   0.3261   0.3275
     0.3285   0.3287   0.3342   0.3399   0.3434   0.3450   0.3453   0.3492
     0.3528   0.3612   0.3613   0.3617   0.3620   0.3665   0.3680   0.3685
     0.3698   0.3700   0.3706   0.3751   0.3770   0.3881   0.3980   0.4032
     0.4440   0.4473   0.4509   0.4520   0.4571   0.4573   0.4580   0.4589
     0.4691   0.4693   0.4696   0.4697   0.5065   0.5075   0.5083   0.5089
     0.5099   0.5100   0.5104   0.5109   0.5410   0.5538   0.5543   0.5543
     0.5547   0.5603   0.5654   0.5671   0.5679   0.5682   0.5687   0.5707
     0.5760   0.5763   0.5766   0.5768   0.5901   0.5913   0.5914   0.5918
     0.6019   0.6053   0.6074   0.6080   0.6644   0.6760   0.6774   0.6786
     0.6794   0.6830   0.6831   0.6833   0.6835   0.6847   0.6852   0.6912
     0.6923   0.7008   0.7068   0.7108   0.7284   0.7288   0.7289   0.7294
     0.7307   0.7308   0.7317   0.7320   0.7744   0.7777   0.7830   0.7832
     0.7938   0.8052   0.8114   0.8119   0.8129   0.8161   0.8275   0.8318
     0.8476   0.8480   0.8484   0.8486   0.8688   0.8712   0.8727   0.8737
     0.9254   0.9254   0.9261   0.9261   0.9582   0.9585   0.9596   0.9597
     1.0005   1.0113   1.0120   1.0126   1.0142   1.0204   1.0255   1.0274
[...]
     4.0046   4.2241   4.2251   4.2260   4.2340   4.3134   4.3265   4.3349
     4.3383   4.5085   4.5507   4.5570   4.5588   4.5627   4.5928   4.5946
     4.6498   4.7930   4.8509   4.8844   4.9005   4.9994   5.0325   5.0733
     5.1587   5.1654   5.1690   5.1743   5.2110   5.2563   5.2791   5.2991
     5.3315   5.3331   5.3454   5.3496   5.5149   5.5948   5.7278   5.7321
     5.7459   5.7466   5.7475   5.7495   5.8504   5.8663   5.8854   5.8873
     6.7804   6.7831   6.7837   6.7840   7.0952   7.1135   7.1191   7.1220
     7.1462   7.1498   7.1526   7.1536   7.2523   7.2675   7.2702   7.2738
     7.3607   7.3656   7.3666   7.3668   7.5180   7.6031   7.6081   7.6101
     7.6704   7.8945   7.9516   7.9604   7.9770   7.9827   7.9897   8.0051
     8.2210   8.2370   8.2382   8.2423   8.2468   8.2816   8.3583   8.3658
     8.8882   8.8885   8.8902   8.8915   8.9214   8.9221   8.9236   8.9252
     8.9627   8.9637   8.9649   8.9656   9.1063   9.1104   9.1185   9.1189
     9.3049   9.3241   9.3379   9.3440   9.5176   9.5212   9.5425   9.5487
     9.5625   9.5648   9.5723   9.5732   9.9265   9.9368   9.9661

     the Fermi energy is     3.3210 ev

!    total energy              =  -12707.14485318 Ry
     Harris-Foulkes estimate   =  -12707.14485316 Ry
     estimated scf accuracy    <          3.7E-09 Ry

     The total energy is the sum of the following terms:

     one-electron contribution = -109278.65745860 Ry
     hartree contribution      =   56000.73899630 Ry
     xc contribution           =   -4447.77263701 Ry
     ewald contribution        =   45024.88857668 Ry
     Dispersion Correction     =      -2.98700982 Ry
     smearing contrib. (-TS)   =      -3.35532072 Ry

     convergence has been achieved in  48 iterations

     Writing output data file gc.save

     General routines

     Parallel routines

   This run was terminated on:  19: 4: 7  26Mar2017

   JOB DONE.