     Program PWSCF v.5.4.0 starts on 25Oct2017 at 18:55:56

     Current dimensions of program PWSCF are:
     Max number of different atomic species (ntypx) = 10
     Max number of k-points (npk) =  40000
     Max angular momentum in pseudopotentials (lmaxx) =  3
     WARNING: atomic wfc #  2 for atom type 4 has zero norm
     WARNING: atomic wfc #  4 for atom type 4 has zero norm
     WARNING: atomic wfc #  5 for atom type 4 has zero norm

     bravais-lattice index     =            0
     lattice parameter (alat)  =      13.9425  a.u.
     unit-cell volume          =   21209.0878 (a.u.)^3
     number of atoms/cell      =          139
     number of atomic types    =            5
     number of electrons       =      1242.00
     number of Kohn-Sham states=          745
     kinetic-energy cutoff     =      80.0000  Ry
     charge density cutoff     =     320.0000  Ry
     convergence threshold     =      1.0E-08
     mixing beta               =       0.7000
     number of iterations used =            8  local-TF  mixing
     Exchange-correlation      =  SLA  PW   PBE  PBE ( 1  4  3  4 0 0)

     celldm(1)=  13.942539  celldm(2)=   0.000000  celldm(3)=   0.000000
     celldm(4)=   0.000000  celldm(5)=   0.000000  celldm(6)=   0.000000

     crystal axes: (cart. coord. in units of alat)
               a(1) = (   1.000000   0.000000   0.000000 )
               a(2) = (   0.000000   2.309401   0.000000 )
               a(3) = (   0.000000   0.000000   3.388418 )

     reciprocal axes: (cart. coord. in units 2 pi/alat)
               b(1) = (  1.000000  0.000000  0.000000 )
               b(2) = (  0.000000  0.433013  0.000000 )
               b(3) = (  0.000000  0.000000  0.295123 )

     PseudoPot. # 1 for Cu read from file:
     /home/549/hxw549/Short/pseudopotentials/Cu.pbe-n-van_ak.UPF
     MD5 check sum: 601f7c30f7467666bec936e0661ce3e1
     Pseudo is Ultrasoft + core correction, Zval = 11.0
     Generated by new atomic code, or converted to UPF format
     Using radial grid of  867 points,  6 beta functions with:
                l(1) =   0
                l(2) =   0
                l(3) =   1
                l(4) =   1
                l(5) =   2
                l(6) =   2
     Q(r) pseudized with  8 coefficients,  rinner =    1.400   1.400   1.400
                                                       1.400   1.400

     PseudoPot. # 2 for C  read from file:
     /home/549/hxw549/Short/pseudopotentials/C.star1s-pbe-mt_gipaw.UPF
     MD5 check sum: ef0cb3dee31bd9e4ba2a832a2c716264
     Pseudo is Norm-conserving, Zval =  5.0
     Generated by new atomic code, or converted to UPF format
     Using radial grid of 1073 points,  1 beta functions with:
                l(1) =   0

     PseudoPot. # 3 for C  read from file:
     /home/549/hxw549/Short/pseudopotentials/C.pbe-mt_gipaw.UPF
     MD5 check sum: 5ac2f21f2c440b14befe521540822c15
     Pseudo is Norm-conserving, Zval =  4.0
     Generated by new atomic code, or converted to UPF format
     Using radial grid of 1073 points,  1 beta functions with:
                l(1) =   0

     PseudoPot. # 4 for O  read from file:
     /home/549/hxw549/Short/pseudopotentials/O.pbe-van_gipaw.UPF
     MD5 check sum: 5ce2a047509d4f331db576c963e74b29
     Pseudo is Ultrasoft, Zval =  6.0
     Generated by new atomic code, or converted to UPF format
     Using radial grid of 1095 points,  4 beta functions with:
                l(1) =   0
                l(2) =   0
                l(3) =   1
                l(4) =   1
     Q(r) pseudized with 0 coefficients

     PseudoPot. # 5 for H  read from file:
     /home/549/hxw549/Short/pseudopotentials/H.pbe-van_ak.UPF
     MD5 check sum: 077eb6d537518a38cb46c6de387227b7
     Pseudo is Ultrasoft, Zval =  1.0
     Generated by new atomic code, or converted to UPF format
     Using radial grid of  615 points,  1 beta functions with:
                l(1) =   0
     Q(r) pseudized with  8 coefficients,  rinner =    0.800

     atomic species   valence    mass     pseudopotential
        Cu            11.00    63.54600     Cu( 1.00)
        C_h            5.00    12.01070     C ( 1.00)
        C              4.00    12.01070     C ( 1.00)
        O              6.00    15.99940     O ( 1.00)
        H              1.00     1.00783     H ( 1.00)

     No symmetry found

   Cartesian axes

     site n.     atom                  positions (alat units)
         1           Cu  tau(   1) = (  -0.0012097  -0.0025913   0.9710874  )
         2           Cu  tau(   2) = (   0.2487551   0.2284683   0.9711924  )
         3           Cu  tau(   3) = (   0.4985369  -0.0025282   0.9713648  )
         4           Cu  tau(   4) = (   0.7485820   0.2279821   0.9712212  )
         5           Cu  tau(   5) = (  -0.0015362   0.4595232   0.9708775  )
         6           Cu  tau(   6) = (   0.2485451   0.6914807   0.9705881  )
         7           Cu  tau(   7) = (   0.4988631   0.4597958   0.9710875  )
         8           Cu  tau(   8) = (   0.7487631   0.6918590   0.9707368  )
         9           Cu  tau(   9) = (  -0.0012089   0.9244292   0.9710472  )
        10           Cu  tau(  10) = (   0.2488623   1.1566312   0.9716840  )
        11           Cu  tau(  11) = (   0.4985059   0.9240236   0.9709682  )
        12           Cu  tau(  12) = (   0.7484339   1.1564124   0.9718996  )
        13           Cu  tau(  13) = (  -0.0014390   1.3877151   0.9723295  )
        14           Cu  tau(  14) = (   0.2484536   1.6182378   0.9725186  )
        15           Cu  tau(  15) = (   0.4987326   1.3880351   0.9726468  )
        16           Cu  tau(  16) = (   0.7488510   1.6182572   0.9725683  )
        17           Cu  tau(  17) = (  -0.0014462   1.8479420   0.9716519  )
        18           Cu  tau(  18) = (   0.2487321   2.0768883   0.9712710  )
        19           Cu  tau(  19) = (   0.4987498   1.8476677   0.9721982  )
        20           Cu  tau(  20) = (   0.7485822   2.0771446   0.9713925  )
        21           Cu  tau(  21) = (  -0.0012792   0.2292314   1.2224927  )
        22           Cu  tau(  22) = (   0.2486003  -0.0015432   1.2236017  )
        23           Cu  tau(  23) = (   0.4987346   0.2292316   1.2226139  )
        24           Cu  tau(  24) = (   0.7487784  -0.0014148   1.2236245  )
        25           Cu  tau(  25) = (  -0.0013216   0.6919404   1.2211397  )
        26           Cu  tau(  26) = (   0.2486801   0.4605059   1.2217461  )
        27           Cu  tau(  27) = (   0.4986762   0.6922707   1.2211300  )
        28           Cu  tau(  28) = (   0.7487750   0.4605306   1.2216894  )
        29           Cu  tau(  29) = (  -0.0014032   1.1554048   1.2227302  )
        30           Cu  tau(  30) = (   0.2484910   0.9237543   1.2215571  )
        31           Cu  tau(  31) = (   0.4984888   1.1552153   1.2228046  )
        32           Cu  tau(  32) = (   0.7487177   0.9237009   1.2214429  )
        33           Cu  tau(  33) = (  -0.0014621   1.6178879   1.2245687  )
        34           Cu  tau(  34) = (   0.2484427   1.3866583   1.2237426  )
        35           Cu  tau(  35) = (   0.4985086   1.6175534   1.2244381  )
        36           Cu  tau(  36) = (   0.7485786   1.3867775   1.2239831  )
        37           Cu  tau(  37) = (  -0.0012995   2.0779225   1.2244493  )
        38           Cu  tau(  38) = (   0.2483545   1.8481598   1.2244008  )
        39           Cu  tau(  39) = (   0.4985430   2.0779478   1.2243536  )
        40           Cu  tau(  40) = (   0.7487497   1.8480972   1.2247301  )
        41           Cu  tau(  41) = (  -0.0013704  -0.0003098   1.4806770  )
        42           Cu  tau(  42) = (   0.2484545   0.2306386   1.4793493  )
        43           Cu  tau(  43) = (   0.4985005  -0.0004575   1.4801505  )
        44           Cu  tau(  44) = (   0.7488774   0.2306625   1.4794701  )
        45           Cu  tau(  45) = (  -0.0013214   0.4614735   1.4781816  )
        46           Cu  tau(  46) = (   0.2485794   0.6926191   1.4773838  )
        47           Cu  tau(  47) = (   0.4986915   0.4619818   1.4774645  )
        48           Cu  tau(  48) = (   0.7486314   0.6930042   1.4775745  )
        49           Cu  tau(  49) = (  -0.0015263   0.9234163   1.4780278  )
        50           Cu  tau(  50) = (   0.2481304   1.1554051   1.4797337  )
        51           Cu  tau(  51) = (   0.4984450   0.9234575   1.4779337  )
        52           Cu  tau(  52) = (   0.7485547   1.1548307   1.4788126  )
        53           Cu  tau(  53) = (  -0.0012984   1.3865196   1.4805012  )
        54           Cu  tau(  54) = (   0.2479432   1.6171458   1.4811405  )
        55           Cu  tau(  55) = (   0.4978837   1.3864687   1.4805332  )
        56           Cu  tau(  56) = (   0.7485516   1.6171762   1.4812666  )
        57           Cu  tau(  57) = (  -0.0011953   1.8475492   1.4827457  )
        58           Cu  tau(  58) = (   0.2483429   2.0771881   1.4825366  )
        59           Cu  tau(  59) = (   0.4978139   1.8469860   1.4811935  )
        60           Cu  tau(  60) = (   0.7485084   2.0779970   1.4812947  )
[...]
       112           C   tau( 112) = (   0.8373096   0.3793014   2.4429514  )
       113           C   tau( 113) = (   0.0043158   0.6689258   2.4486004  )
       114           C   tau( 114) = (   0.0043938   0.8625725   2.4422468  )
       115           C   tau( 115) = (   0.1708331   0.5723889   2.4488213  )
       116           C   tau( 116) = (   0.1701533   0.9617778   2.4382197  )
       117           C   tau( 117) = (   0.3368970   0.6704349   2.4492842  )
       118           C   tau( 118) = (   0.3365397   0.8649817   2.4453037  )
       119           C   tau( 119) = (   0.5032430   0.5726465   2.4475726  )
       120           C   tau( 120) = (   0.5028359   0.9623304   2.4414528  )
       121           C   tau( 121) = (   0.6695346   0.6694273   2.4472052  )
       122           C   tau( 122) = (   0.6689126   0.8630894   2.4433534  )
       123           C   tau( 123) = (   0.8369332   0.5731626   2.4483239  )
       124           C   tau( 124) = (   0.8366756   0.9560218   2.4376245  )
       125           C   tau( 125) = (   0.0001799   1.2445048   2.4153334  )
       126           C   tau( 126) = (   0.1685787   1.1572798   2.4228258  )
       127           C_h tau( 127) = (   0.3362848   1.2566334   2.4158566  )
       128           C   tau( 128) = (   0.5039645   1.1578546   2.4277521  )
       129           C   tau( 129) = (   0.6724014   1.2433047   2.4084365  )
       130           C   tau( 130) = (   0.8365069   1.1483291   2.4208477  )
       131           H   tau( 131) = (   0.1706370  -0.1513517   2.3937178  )
       132           H   tau( 132) = (   0.5043025  -0.1510021   2.3910029  )
       133           H   tau( 133) = (   0.8380053  -0.1514294   2.3940667  )
       134           H   tau( 134) = (  -0.0058852   1.3911637   2.4071078  )
       135           H   tau( 135) = (   0.6795782   1.3884169   2.3884865  )
       136           C   tau( 136) = (   0.3335216   1.4531266   2.3884900  )
       137           O   tau( 137) = (   0.2180176   1.5404540   2.2936940  )
       138           O   tau( 138) = (   0.4667822   1.5517011   2.4715726  )
       139           H   tau( 139) = (   0.4596473   1.6754162   2.4214094  )

     number of k points=     6  gaussian smearing, width (Ry)=  0.1000
                       cart. coord. in units 2pi/alat
        k(    1) = (   0.0000000   0.0000000   0.0000000), wk =   0.2500000
        k(    2) = (   0.0000000  -0.2165064   0.0000000), wk =   0.2500000
        k(    3) = (   0.2500000   0.0000000   0.0000000), wk =   0.5000000
        k(    4) = (   0.2500000  -0.2165064   0.0000000), wk =   0.5000000
        k(    5) = (  -0.5000000   0.0000000   0.0000000), wk =   0.2500000
        k(    6) = (  -0.5000000  -0.2165064   0.0000000), wk =   0.2500000

     Largest allocated arrays     est. size (Mb)     dimensions
     Largest temporary arrays     est. size (Mb)     dimensions

     Initial potential from superposition of free atoms
     Check: negative starting charge=   -0.001952

     starting charge 1225.31748, renormalised to 1242.00000

     negative rho (up, down):  1.979E-03 0.000E+00
     Starting wfc are 1162 randomized atomic wfcs

     Self-consistent Calculation

     iteration #  1     ecut=    80.00 Ry     beta=0.70
     Davidson diagonalization with overlap
     ethr =  1.00E-04,  avg # of iterations = 19.2

     negative rho (up, down):  2.807E+01 0.000E+00

     total energy              =   -8389.37488465 Ry
     Harris-Foulkes estimate   =  -15373.50203917 Ry
     estimated scf accuracy    <  161401.01440618 Ry

[...]

     iteration # 32     ecut=    80.00 Ry     beta=0.70
     Davidson diagonalization with overlap
     c_bands:  1 eigenvalues not converged
     ethr =  8.72E-07,  avg # of iterations = 14.2

[...]

     total energy              =  -12581.01360970 Ry
     Harris-Foulkes estimate   =  -12581.01360973 Ry
     estimated scf accuracy    <       0.00000001 Ry

     iteration # 45     ecut=    80.00 Ry     beta=0.70
     Davidson diagonalization with overlap
     ethr =  8.79E-13,  avg # of iterations =  2.7

     negative rho (up, down):  2.169E-03 0.000E+00

     End of self-consistent calculation

          k = 0.0000 0.0000 0.0000 (256287 PWs)   bands (ev):

   -21.4238 -18.8714 -16.8136 -16.1715 -15.4283 -14.5943 -14.4862 -14.2557
   -13.9684 -13.7747 -13.2470 -13.0990 -12.5449 -11.9761 -11.9033 -11.1651
   -10.5007 -10.2644  -9.3524  -9.2402  -9.2112  -8.7845  -8.5679  -8.0581
    -7.8195  -7.6849  -7.4282  -7.3172  -6.8195  -6.7044  -6.5551  -6.3411
    -6.1499  -5.9527  -5.8048  -5.7959  -5.6979  -5.4915  -5.4379  -5.3468
    -5.1355  -5.0380  -4.8156  -4.7831  -4.5581  -4.3137  -4.3089  -4.3028
    -4.1782  -4.0117  -3.8122  -3.7268  -3.7226  -3.6777  -3.5892  -3.4492
    -3.4027  -3.3673  -3.3333  -3.3311  -3.3283  -3.3238  -3.3058  -3.2803
    -3.2542  -3.2177  -3.1694  -3.0360  -2.9680  -2.9102  -2.8991  -2.7768
    -2.7583  -2.6838  -2.6810  -2.6791  -2.6726  -2.5293  -2.5246  -2.4921
    -2.4916  -2.4902  -2.4880  -2.4555  -2.3994  -2.3950  -2.3920  -2.3868
    -2.3855  -2.3378  -2.3254  -2.2465  -2.1896  -2.1605  -2.1431  -2.1192
    -2.1172  -2.1157  -2.1131  -2.0968  -2.0697  -2.0575  -2.0307  -2.0200
    -2.0184  -2.0157  -2.0009  -1.9790  -1.9722  -1.9660  -1.9630  -1.9488
    -1.9447  -1.9321  -1.8774  -1.8762  -1.8736  -1.8665  -1.8211  -1.7797
    -1.7365  -1.7300  -1.7277  -1.7260  -1.7052  -1.6779  -1.6669  -1.6661
    -1.6572  -1.6113  -1.5893  -1.5852  -1.5706  -1.5693  -1.5438  -1.5422
    -1.5130  -1.4674  -1.4616  -1.4588  -1.4569  -1.4555  -1.4463  -1.4416
    -1.4343  -1.4294  -1.4237  -1.4200  -1.4144  -1.4079  -1.4074  -1.4017
    -1.4006  -1.3981  -1.3932  -1.3738  -1.3547  -1.3480  -1.3440  -1.3430
    -1.3377  -1.3362  -1.3344  -1.2957  -1.2879  -1.2820  -1.2729  -1.2672
    -1.2608  -1.2589  -1.2583  -1.2563  -1.2278  -1.2265  -1.2258  -1.2254
    -1.2209  -1.2184  -1.2182  -1.2162  -1.1859  -1.0970  -1.0920  -1.0899
    -1.0853  -1.0566  -1.0486  -1.0466  -1.0448  -1.0408  -1.0383  -1.0366
    -1.0360  -1.0312  -1.0203  -1.0186  -1.0004  -0.9838  -0.9819  -0.9756
    -0.9733  -0.9597  -0.9571  -0.9558  -0.9542  -0.9249  -0.9083  -0.8998
    -0.8730  -0.8581  -0.8534  -0.8512  -0.8492  -0.8473  -0.8365  -0.8356
    -0.8329  -0.8326  -0.8296  -0.8188  -0.8160  -0.8148  -0.8119  -0.8076
    -0.8013  -0.7999  -0.7833  -0.7824  -0.7770  -0.7427  -0.7392  -0.7171
    -0.7113  -0.7083  -0.7074  -0.7043  -0.7016  -0.7001  -0.6993  -0.6976
    -0.6953  -0.6884  -0.6775  -0.6723  -0.6719  -0.6690  -0.6686  -0.6663
    -0.6657  -0.6629  -0.6608  -0.6599  -0.6555  -0.6314  -0.6303  -0.6121
    -0.6100  -0.6091  -0.6046  -0.6024  -0.5980  -0.5848  -0.5821  -0.5575
    -0.5542  -0.5520  -0.5472  -0.5439  -0.5237  -0.5222  -0.5187  -0.5164
    -0.4971  -0.4958  -0.4929  -0.4888  -0.4793  -0.4777  -0.4768  -0.4745
    -0.4709  -0.4441  -0.4424  -0.4388  -0.4360  -0.4315  -0.4271  -0.4196
    -0.4134  -0.3874  -0.3838  -0.3828  -0.3810  -0.3766  -0.3710  -0.3590
    -0.3580  -0.3556  -0.3548  -0.3473  -0.3470  -0.3293  -0.3286  -0.3249
    -0.3208  -0.3158  -0.3125  -0.2973  -0.2941  -0.2862  -0.2858  -0.2780
    -0.2751  -0.2626  -0.2401  -0.2015  -0.1911  -0.1895  -0.1875  -0.1811
    -0.1807  -0.1790  -0.1706  -0.1682  -0.1663  -0.1606  -0.1598  -0.1590
    -0.1493  -0.1363  -0.1248  -0.1051  -0.0932  -0.0859  -0.0831  -0.0825
    -0.0757  -0.0736  -0.0719  -0.0521  -0.0465  -0.0391  -0.0230  -0.0176
    -0.0142  -0.0085  -0.0055   0.0105   0.0117   0.0167   0.0227   0.0295
     0.0407   0.0556   0.0586   0.0623   0.0625   0.0674   0.0694   0.0709
     0.0716   0.0803   0.0823   0.0850   0.0863   0.0902   0.0911   0.0952
     0.0976   0.0994   0.1038   0.1046   0.1060   0.1080   0.1149   0.1204
     0.1314   0.1386   0.1526   0.1633   0.1688   0.1699   0.1846   0.1858
     0.1904   0.2014   0.2026   0.2053   0.2070   0.2083   0.2092   0.2102
     0.2116   0.2158   0.2214   0.2230   0.2247   0.2278   0.2304   0.2349
     0.2531   0.2556   0.2569   0.2583   0.2626   0.2658   0.2693   0.2700
     0.2702   0.2762   0.2840   0.2946   0.3160   0.3208   0.3227   0.3302
     0.3453   0.3474   0.3493   0.3569   0.3696   0.3720   0.3750   0.3763
     0.3863   0.3888   0.3902   0.4001   0.4046   0.4052   0.4119   0.4202
     0.4240   0.4256   0.4312   0.4426   0.4457   0.4633   0.4685   0.4692
     0.4717   0.4750   0.4777   0.4879   0.4928   0.4988   0.5100   0.5119
     0.5195   0.5219   0.5229   0.5252   0.5304   0.5338   0.5405   0.5440
     0.5444   0.5472   0.5524   0.5535   0.5580   0.5595   0.5659   0.5673
     0.5685   0.5743   0.5781   0.5788   0.5818   0.5902   0.5928   0.6035
     0.6099   0.6118   0.6158   0.6219   0.6326   0.6384   0.6398   0.6408
[...]
     3.3564   3.3599   3.3896   3.4107   3.4490   3.5251   3.5537   3.5637
     3.5664   3.5697   3.5770   3.5857   3.5932   3.6249   3.6530   3.7184
     3.7720   4.2343   4.3997   4.5503   4.6781   4.7721   4.8141   4.8721
     4.9568   4.9835   5.0435   5.1168   5.1607   5.3774   5.5319   5.5466
     5.5783   5.6751   5.7897   5.8331   5.8653   5.9219   5.9358   6.0528
     6.1056   6.1317   6.1564   6.1621   6.2328   6.2953   6.3399   6.3942
     6.4045   6.4448   6.4749   6.5090   6.5659   6.7747   6.8472   6.8805
     6.8894   7.0826   7.1981   7.2206   7.2382   7.2467   7.3277   7.3935
     7.4247   7.4765   7.5364   7.5868   7.6231   7.6511   7.6958   7.7671
     7.7817   7.8139   7.8615   7.9010   7.9082   7.9369   7.9446   7.9567
     7.9632   8.0169   8.0334   8.1330   8.1684   8.1812   8.1998   8.2226
     8.2925   8.3130   8.3553   8.3742   8.4290   8.4445   8.4903   8.5235
     8.5865   8.6733   8.7156   8.7345   8.8222   8.8391   8.8534   9.0626
     9.0938   9.1134   9.1145   9.1715   9.2275   9.2803   9.3723   9.3808
     9.5247

[...]

          k = 0.2500-0.2165 0.0000 (256316 PWs)   bands (ev):

[...]

          k =-0.5000 0.0000 0.0000 (256496 PWs)   bands (ev):

[...]

          k =-0.5000-0.2165 0.0000 (256328 PWs)   bands (ev):

   -21.4236 -18.8717 -16.6824 -15.8973 -15.7059 -15.3383 -14.9047 -14.4188
   -13.7489 -13.1829 -12.4040 -12.2837 -12.0746 -11.8184 -11.6952 -11.6115
   -11.1738 -10.5904 -10.5148  -9.7568  -9.4271  -9.1215  -8.9394  -8.4364
    -8.2507  -7.7818  -7.3513  -6.7620  -6.2903  -5.9262  -5.5702  -5.5057
    -5.5045  -5.4923  -5.4879  -5.4549  -5.4185  -5.1718  -5.1124  -5.0574
    -4.8341  -4.6018  -4.5400  -4.5369  -4.5251  -4.5223  -4.5173  -4.5112
    -4.5058  -4.4942  -4.4474  -4.2741  -4.1691  -4.0906  -3.9929  -3.9374
    -3.8919  -3.7433  -3.6821  -3.6523  -3.6405  -3.6264  -3.5540  -3.4408
    -3.4277  -3.3676  -3.0203  -3.0066  -3.0033  -2.9890  -2.9385  -2.9127
    -2.9121  -2.9073  -2.9061  -2.8895  -2.7606  -2.5601  -2.5150  -2.4778
    -2.4716  -2.4626  -2.4575  -2.4568  -2.4519  -2.4387  -2.4207  -2.3008
    -2.1573  -2.1549  -2.1530  -2.1419  -2.0358  -1.9949  -1.9897  -1.9808
    -1.9738  -1.9219  -1.9155  -1.9089  -1.8997  -1.8513  -1.8485  -1.8483
    -1.8451  -1.8384  -1.8358  -1.8339  -1.8325  -1.7581  -1.7545  -1.7535
    -1.7534  -1.7502  -1.7494  -1.7474  -1.7440  -1.7318  -1.7289  -1.7286
    -1.7230  -1.7219  -1.7098  -1.7089  -1.7058  -1.7037  -1.6931  -1.6776
    -1.6713  -1.6662  -1.6129  -1.5826  -1.5808  -1.5802  -1.5764  -1.5738
    -1.5677  -1.5630  -1.5617  -1.5582  -1.5507  -1.5473  -1.5374  -1.5344
    -1.5339  -1.5323  -1.5224  -1.5153  -1.5136  -1.5109  -1.4835  -1.4505
    -1.4480  -1.4455  -1.4378  -1.4363  -1.4325  -1.4293  -1.4267  -1.4228
    -1.4211  -1.4201  -1.4122  -1.4083  -1.3244  -1.3067  -1.3046  -1.3034
    -1.2914  -1.2762  -1.2292  -1.2232  -1.2221  -1.2213  -1.2197  -1.1991
    -1.1955  -1.1917  -1.1907  -1.1893  -1.1871  -1.1783  -1.1753  -1.1720
    -1.1713  -1.1705  -1.1059  -1.1033  -1.1021  -1.0978  -1.0959  -1.0876
    -1.0853  -1.0846  -1.0839  -1.0816  -1.0798  -1.0690  -1.0298  -0.9900
    -0.9833  -0.9815  -0.9786  -0.9781  -0.9695  -0.9673  -0.9601  -0.9258
    -0.9221  -0.9179  -0.9125  -0.8872  -0.8799  -0.8777  -0.8760  -0.8653
    -0.8650  -0.8628  -0.8596  -0.8347  -0.8141  -0.8110  -0.8085  -0.8075
    -0.8023  -0.7992  -0.7968  -0.7696  -0.7423  -0.7398  -0.7335  -0.7001
    -0.6819  -0.6794  -0.6762  -0.6754  -0.6731  -0.6720  -0.6673  -0.6666
    -0.6616  -0.6606  -0.6576  -0.6439  -0.6077  -0.6015  -0.5956  -0.5934
    -0.5906  -0.5890  -0.5875  -0.5799  -0.5781  -0.5771  -0.5766  -0.5747
    -0.5734  -0.5720  -0.5709  -0.5688  -0.5671  -0.5642  -0.5632  -0.5581
    -0.5133  -0.5116  -0.5077  -0.5049  -0.4644  -0.4602  -0.4574  -0.4547
    -0.4192  -0.4153  -0.4126  -0.4111  -0.4073  -0.4061  -0.4055  -0.4046
    -0.4041  -0.4035  -0.4023  -0.3992  -0.3810  -0.3795  -0.3754  -0.3748
    -0.3733  -0.3677  -0.3655  -0.3640  -0.3553  -0.3530  -0.3509  -0.3491
    -0.3289  -0.3278  -0.3267  -0.3264  -0.3258  -0.3251  -0.3236  -0.3219
    -0.2986  -0.2945  -0.2932  -0.2918  -0.2899  -0.2880  -0.2858  -0.2842
    -0.2198  -0.2162  -0.2143  -0.2134  -0.2122  -0.2096  -0.2022  -0.1882
    -0.1664  -0.1641  -0.1622  -0.1588  -0.1153  -0.0951  -0.0902  -0.0882
    -0.0859  -0.0836  -0.0727  -0.0701  -0.0657  -0.0652  -0.0636  -0.0618
    -0.0608  -0.0598  -0.0588  -0.0573  -0.0555  -0.0514  -0.0491  -0.0432
    -0.0340  -0.0194  -0.0152  -0.0115  -0.0102  -0.0065  -0.0009   0.0023
     0.0033   0.0040   0.0062   0.0078   0.0146   0.0286   0.0348   0.0393
     0.0423   0.0571   0.0614   0.0680   0.0693   0.0722   0.0889   0.0902
     0.0979   0.1012   0.1028   0.1048   0.1070   0.1157   0.1211   0.1224
     0.1248   0.1268   0.1292   0.1306   0.1329   0.1363   0.1389   0.1397
     0.1416   0.1451   0.1470   0.1523   0.1552   0.1585   0.1660   0.1694
     0.1774   0.1855   0.1994   0.2028   0.2082   0.2122   0.2147   0.2242
     0.2317   0.2358   0.2472   0.2485   0.2495   0.2524   0.2547   0.2601
     0.2620   0.2635   0.2661   0.2669   0.2672   0.2769   0.2806   0.2827
     0.2935   0.2943   0.3044   0.3103   0.3174   0.3283   0.3301   0.3378
     0.3479   0.3483   0.3506   0.3515   0.3715   0.3982   0.3988   0.4005
     0.4015   0.4044   0.4084   0.4093   0.4218   0.4319   0.4745   0.4762
     0.4767   0.4786   0.4953   0.4966   0.4994   0.5028   0.5056   0.5102
     0.5144   0.5255   0.5318   0.5327   0.5387   0.5471   0.5519   0.5533
     0.5558   0.5576   0.5598   0.5609   0.5624   0.5639   0.5684   0.5722
     0.5724   0.5734   0.5756   0.5766   0.5803   0.5860   0.5937   0.5955
     0.6032   0.6040   0.6088   0.6098   0.6116   0.6150   0.6176   0.6217
[...]
     3.5609   3.6449   3.6583   3.7048   3.7401   3.7477   3.7545   3.7646
     3.9101   3.9672   3.9845   4.0174   4.1288   4.2090   4.2188   4.2259
     4.2366   4.5484   4.5996   4.6137   4.6264   4.6331   4.6499   4.6518
     4.6538   4.6700   4.6742   4.6821   4.7209   4.7857   4.8260   4.9595
     5.0142   5.1087   5.1238   5.1436   5.1992   5.2822   5.2912   5.2986
     5.3206   5.3447   5.3814   6.2397   6.3222   6.3568   6.3925   6.3941
     6.4083   6.4159   6.4436   6.5014   6.5237   6.5371   6.5460   6.5533
     6.5674   6.5719   6.6389   6.6654   6.7739   6.7924   6.8523   6.8609
     6.8658   6.8693   6.9157   6.9243   7.0094   7.1414   7.3314   7.3524
     7.3845   7.4757   7.4895   7.7202   7.7342   7.7436   7.7501   7.9374
     7.9894   8.2305   8.2319   8.2342   8.2469   8.3055   8.3421   8.3645
     8.3709   8.3738   8.3843   8.4015   8.4256   8.4730   8.5376   8.5518
     8.5686   8.5787   8.6056   8.6165   8.6224   8.6459   8.7191   8.7807
     8.8154   8.8540   8.8792   8.9034   8.9131   8.9401   9.0128   9.2243
     9.3346

     the Fermi energy is     2.8292 ev

!    total energy              =  -12581.01360965 Ry
     Harris-Foulkes estimate   =  -12581.01360970 Ry
     estimated scf accuracy    <          3.8E-09 Ry

     The total energy is the sum of the following terms:

     one-electron contribution = -103499.82933553 Ry
     hartree contribution      =   53075.27979377 Ry
     xc contribution           =   -4404.51181111 Ry
     ewald contribution        =   42251.41195595 Ry
     smearing contrib. (-TS)   =      -3.36421273 Ry

     convergence has been achieved in  45 iterations

     Writing output data file gc.save

     General routines

     Parallel routines

   This run was terminated on:   1:18:13  26Oct2017

   JOB DONE.