     Program PWSCF v.5.4.0 starts on  8Nov2016 at 17:35: 6

     Current dimensions of program PWSCF are:
     Max number of different atomic species (ntypx) = 10
     Max number of k-points (npk) =  40000
     Max angular momentum in pseudopotentials (lmaxx) =  3

     Parameters for Dispersion Correction:
       atom      VdW radius       C_6

        C          2.744         60.710

     Message from routine setup:
     no reason to have ecutrho>4*ecutwfc
     Found symmetry operation: I + (  0.1667  0.0000  0.0000)
     This is a supercell, fractional translations are disabled

     bravais-lattice index     =            0
     lattice parameter (alat)  =      27.5793  a.u.
     unit-cell volume          =   10780.2123 (a.u.)^3
     number of atoms/cell      =           60
     number of atomic types    =            1
     number of electrons       =       239.00
     number of Kohn-Sham states=          144
     kinetic-energy cutoff     =      40.0000  Ry
     charge density cutoff     =     180.0000  Ry
     convergence threshold     =      1.0E-10
     mixing beta               =       0.7000
     number of iterations used =            8  plain     mixing
     Exchange-correlation      =  SLA  PW   PBX  PBC ( 1  4  3  4 0 0)
     nstep                     =           50

     celldm(1)=  27.579319  celldm(2)=   0.000000  celldm(3)=   0.000000
     celldm(4)=   0.000000  celldm(5)=   0.000000  celldm(6)=   0.000000

     crystal axes: (cart. coord. in units of alat)
               a(1) = (   1.000000   0.000000   0.000000 )
               a(2) = (  -0.433013   0.750000   0.000000 )
               a(3) = (   0.000000   0.000000   0.685197 )

     reciprocal axes: (cart. coord. in units 2 pi/alat)
               b(1) = (  1.000000  0.577350  0.000000 )
               b(2) = (  0.000000  1.333333  0.000000 )
               b(3) = (  0.000000  0.000000  1.459435 )

     PseudoPot. # 1 for C  read from file:
     /home/549/hxw549/Short/pseudopotentials/C.pbe-mt_gipaw.UPF
     MD5 check sum: 5ac2f21f2c440b14befe521540822c15
     Pseudo is Norm-conserving, Zval =  4.0
     Generated by new atomic code, or converted to UPF format
     Using radial grid of 1073 points,  1 beta functions with:
                l(1) =   0

     atomic species   valence    mass     pseudopotential
        C              4.00    12.01070     C ( 1.00)

      4 Sym. Ops., with inversion, found

   Cartesian axes

     site n.     atom                  positions (alat units)
         1           C   tau(   1) = (   0.0822436   0.0500000   0.3425984  )
         2           C   tau(   2) = (  -0.0021795   0.1000000   0.3425984  )
         3           C   tau(   3) = (   0.2489103   0.0500000   0.3425984  )
         4           C   tau(   4) = (   0.1644872   0.1000000   0.3425984  )
         5           C   tau(   5) = (   0.4155769   0.0500000   0.3425984  )
         6           C   tau(   6) = (   0.3311538   0.1000000   0.3425984  )
         7           C   tau(   7) = (   0.5822436   0.0500000   0.3425984  )
         8           C   tau(   8) = (   0.4978205   0.1000000   0.3425984  )
         9           C   tau(   9) = (   0.7489103   0.0500000   0.3425984  )
        10           C   tau(  10) = (   0.6644872   0.1000000   0.3425984  )
        11           C   tau(  11) = (   0.9155769   0.0500000   0.3425984  )
        12           C   tau(  12) = (   0.8311538   0.1000000   0.3425984  )
        13           C   tau(  13) = (  -0.0043590   0.2000001   0.3425984  )
        14           C   tau(  14) = (  -0.0887820   0.2500001   0.3425984  )
        15           C   tau(  15) = (   0.1623077   0.2000001   0.3425984  )
        16           C   tau(  16) = (   0.0778846   0.2500001   0.3425984  )
        17           C   tau(  17) = (   0.3289744   0.2000001   0.3425984  )
        18           C   tau(  18) = (   0.2445513   0.2500001   0.3425984  )
        19           C   tau(  19) = (   0.4956410   0.2000001   0.3425984  )
        20           C   tau(  20) = (   0.4112180   0.2500001   0.3425984  )
        21           C   tau(  21) = (   0.6623077   0.2000001   0.3425984  )
        22           C   tau(  22) = (   0.5778846   0.2500001   0.3425984  )
        23           C   tau(  23) = (   0.8289744   0.2000001   0.3425984  )
        24           C   tau(  24) = (   0.7445513   0.2500001   0.3425984  )
        25           C   tau(  25) = (  -0.0909615   0.3500001   0.3425984  )
        26           C   tau(  26) = (  -0.1753846   0.4000001   0.3425984  )
        27           C   tau(  27) = (   0.0757051   0.3500001   0.3425984  )
        28           C   tau(  28) = (  -0.0087179   0.4000001   0.3425984  )
        29           C   tau(  29) = (   0.2423718   0.3500001   0.3425984  )
        30           C   tau(  30) = (   0.1579487   0.4000001   0.3425984  )
        31           C   tau(  31) = (   0.4090385   0.3500001   0.3425984  )
        32           C   tau(  32) = (   0.3246154   0.4000001   0.3425984  )
        33           C   tau(  33) = (   0.5757051   0.3500001   0.3425984  )
        34           C   tau(  34) = (   0.4912821   0.4000001   0.3425984  )
        35           C   tau(  35) = (   0.7423718   0.3500001   0.3425984  )
        36           C   tau(  36) = (   0.6579487   0.4000001   0.3425984  )
        37           C   tau(  37) = (  -0.1775641   0.5000001   0.3425984  )
        38           C   tau(  38) = (  -0.2619872   0.5500001   0.3425984  )
        39           C   tau(  39) = (  -0.0108974   0.5000001   0.3425984  )
        40           C   tau(  40) = (  -0.0953205   0.5500001   0.3425984  )
        41           C   tau(  41) = (   0.1557692   0.5000001   0.3425984  )
        42           C   tau(  42) = (   0.0713462   0.5500001   0.3425984  )
        43           C   tau(  43) = (   0.3224359   0.5000001   0.3425984  )
        44           C   tau(  44) = (   0.2380128   0.5500001   0.3425984  )
        45           C   tau(  45) = (   0.4891026   0.5000001   0.3425984  )
        46           C   tau(  46) = (   0.4046795   0.5500001   0.3425984  )
        47           C   tau(  47) = (   0.6557692   0.5000001   0.3425984  )
        48           C   tau(  48) = (   0.5713462   0.5500001   0.3425984  )
        49           C   tau(  49) = (  -0.2641667   0.6500002   0.3425984  )
        50           C   tau(  50) = (  -0.3485897   0.7000002   0.3425984  )
        51           C   tau(  51) = (  -0.0975000   0.6500002   0.3425984  )
        52           C   tau(  52) = (  -0.1819231   0.7000002   0.3425984  )
        53           C   tau(  53) = (   0.0691667   0.6500002   0.3425984  )
        54           C   tau(  54) = (  -0.0152564   0.7000002   0.3425984  )
        55           C   tau(  55) = (   0.2358333   0.6500002   0.3425984  )
        56           C   tau(  56) = (   0.1514103   0.7000002   0.3425984  )
        57           C   tau(  57) = (   0.4025000   0.6500002   0.3425984  )
        58           C   tau(  58) = (   0.3180769   0.7000002   0.3425984  )
        59           C   tau(  59) = (   0.5691667   0.6500002   0.3425984  )
        60           C   tau(  60) = (   0.4847436   0.7000002   0.3425984  )

     number of k points=     1  gaussian smearing, width (Ry)=  0.1000
                       cart. coord. in units 2pi/alat
        k(    1) = (   0.0000000   0.0000000   0.0000000), wk =   2.0000000

     Largest allocated arrays     est. size (Mb)     dimensions
     Largest temporary arrays     est. size (Mb)     dimensions

     Initial potential from superposition of free atoms
     Check: negative starting charge=   -0.002535

     starting charge  209.99992, renormalised to  239.00000

     negative rho (up, down):  2.885E-03 0.000E+00
     Starting wfc are  480 randomized atomic wfcs

     Self-consistent Calculation

     iteration #  1     ecut=    40.00 Ry     beta=0.70
     Davidson diagonalization with overlap
     ethr =  1.00E-04,  avg # of iterations =  6.0

     negative rho (up, down):  5.822E-04 0.000E+00

     total energy              =    -683.62017075 Ry
     Harris-Foulkes estimate   =    -684.05496681 Ry
     estimated scf accuracy    <       1.45759507 Ry

[...]

     End of self-consistent calculation

          k = 0.0000 0.0000 0.0000 ( 46005 PWs)   bands (ev):

   -20.3558 -19.6805 -19.6805 -19.5613 -19.5613 -19.4594 -19.4593 -18.3299
   -18.3299 -18.0350 -18.0350 -17.6939 -17.6939 -17.6888 -17.6888 -17.2375
   -17.2375 -16.8740 -16.8740 -15.8493 -15.8491 -15.5720 -15.5720 -15.4088
   -15.4088 -15.1745 -15.1745 -14.7791 -14.6796 -14.6796 -14.1640 -13.5495
   -13.5495 -13.3360 -13.3360 -12.6609 -12.6609 -12.3715 -12.3715 -12.3581
   -12.3581 -11.9257 -11.9256 -11.2620 -11.2620 -10.8587 -10.8587 -10.3380
   -10.3380 -10.0312 -10.0312  -9.8799  -9.8799  -9.5515  -9.5513  -9.5050
    -9.5050  -9.0448  -9.0448  -8.8235  -8.8235  -8.4419  -8.1390  -8.1390
    -7.9949  -7.9949  -7.7696  -7.6514  -7.6514  -7.6400  -7.6400  -7.5042
    -7.5042  -7.3898  -7.3898  -7.3691  -7.3691  -7.3203  -7.3201  -7.0919
    -7.0919  -7.0760  -7.0760  -6.7540  -6.7540  -6.6435  -6.6435  -6.1226
    -6.1226  -6.0745  -6.0745  -5.7453  -5.7453  -5.4913  -5.4913  -5.3732
    -5.3732  -5.3651  -5.3651  -5.3523  -5.3523  -5.2614  -5.2611  -4.8926
    -4.8926  -4.5878  -4.5878  -4.1538  -3.9622  -3.3674  -3.3672  -3.3549
    -3.3549  -3.0216  -3.0216  -2.9378  -2.9340  -2.9340  -2.1855  -2.1855
     0.2474   0.2474   0.6518   0.6518   0.6894   1.0516   1.0516   1.0610
     1.0610   1.5960   1.5962   2.1275   2.1275   2.7019   3.0355   3.0355
     3.6162   3.6162   3.7760   3.7760   3.8412   3.8412   3.9961   3.9961

     the Fermi energy is    -1.3398 ev

!    total energy              =    -683.76015718 Ry
     Harris-Foulkes estimate   =    -683.76015718 Ry
     estimated scf accuracy    <          5.0E-11 Ry

     The total energy is the sum of the following terms:

     one-electron contribution =   -2681.92734750 Ry
     hartree contribution      =    1388.47680486 Ry
     xc contribution           =    -208.92968390 Ry
     ewald contribution        =     819.09431327 Ry
     Dispersion Correction     =      -0.24302870 Ry
     smearing contrib. (-TS)   =      -0.23121522 Ry

     convergence has been achieved in  13 iterations

     Forces acting on atoms (Ry/au):

     atom    1 type  1   force =    -0.00741872   -0.00980884    0.00000000
     atom    2 type  1   force =     0.00753093    0.00984059    0.00000000
     atom    3 type  1   force =    -0.00741895   -0.00980863    0.00000000
     atom    4 type  1   force =     0.00753109    0.00984095    0.00000000
     atom    5 type  1   force =    -0.00741804   -0.00980883   -0.00000000
     atom    6 type  1   force =     0.00753154    0.00984094    0.00000000
     atom    7 type  1   force =    -0.00741930   -0.00980879   -0.00000000
     atom    8 type  1   force =     0.00753115    0.00984015    0.00000000
     atom    9 type  1   force =    -0.00741895   -0.00980866   -0.00000000
     atom   10 type  1   force =     0.00753099    0.00984055    0.00000000
     atom   11 type  1   force =    -0.00741847   -0.00980882   -0.00000000
[...]
C        0.056032087   0.533805914   0.500000000
C        0.277301243   0.466194085   0.500000000
C        0.222698748   0.533805907   0.500000000
C        0.443967924   0.466194096   0.500000000
C        0.389365414   0.533805905   0.500000000
C        0.610634586   0.466194095   0.500000000
C        0.556032076   0.533805904   0.500000000
C        0.777301252   0.466194093   0.500000000
C        0.722698757   0.533805915   0.500000000
C        0.943967913   0.466194086   0.500000000
C        0.889365417   0.533805911   0.500000000
C        0.110634832   0.666187962   0.500000000
C        0.056034561   0.733811971   0.500000000
C        0.277301497   0.666187973   0.500000000
C        0.222701233   0.733811972   0.500000000
C        0.443968187   0.666187992   0.500000000
C        0.389367902   0.733812011   0.500000000
C        0.610634842   0.666187983   0.500000000
C        0.556034563   0.733812002   0.500000000
C        0.777301507   0.666187981   0.500000000
C        0.722701247   0.733812003   0.500000000
C        0.943968165   0.666187966   0.500000000
C        0.889367896   0.733811986   0.500000000
C        0.110632027   0.866190922   0.500000000
C        0.056029886   0.933807541   0.500000000
C        0.277298709   0.866190925   0.500000000
C        0.222696560   0.933807534   0.500000000
C        0.443965372   0.866190944   0.500000000
C        0.389363246   0.933807540   0.500000000
C        0.610632011   0.866190906   0.500000000
C        0.556029871   0.933807542   0.500000000
C        0.777298698   0.866190905   0.500000000
C        0.722696560   0.933807532   0.500000000
C        0.943965371   0.866190923   0.500000000
C        0.889363226   0.933807542   0.500000000

     Writing output data file graphene.save
     Check: negative starting charge=   -0.002535
     NEW-OLD atomic charge density approx. for the potential
     Check: negative starting charge=   -0.002527

[...]

     energy   old            =    -683.7601571784 Ry
     energy   new            =    -683.7597879364 Ry

     CASE: energy  _new > energy  _old

[...]

     negative rho (up, down):  3.607E-06 0.000E+00

[...]

     CASE: energy  _new < energy  _old

[...]

     Threshold (ethr) on eigenvalues was too large:
     Diagonalizing with lowered threshold

     Davidson diagonalization with overlap
     ethr =  1.81E-09,  avg # of iterations =  4.0

[...]

     CASE: energy  _new > energy  _old

[...]

     small trust_radius: resetting bfgs history

[...]

     number of scf cycles    =   6
     number of bfgs steps    =   3

     energy   old            =    -683.7623576696 Ry
     energy   new            =    -683.7623577306 Ry

     CASE: energy  _new < energy  _old

     Message from routine bfgs:
     history already reset at previous step: stopping
     small trust_radius: resetting bfgs history

     new trust radius        =       0.0000450890 bohr
     new conv_thr            =            1.0E-12 Ry

ATOMIC_POSITIONS (crystal)
C        0.110891386   0.066428894   0.500000000
C        0.055784719   0.133571512   0.500000000
C        0.277558050   0.066428890   0.500000000
C        0.222451391   0.133571513   0.500000000
C        0.444224712   0.066428888   0.500000000
C        0.389118060   0.133571518   0.500000000
C        0.610891373   0.066428888   0.500000000
C        0.555784718   0.133571513   0.500000000
C        0.777558038   0.066428889   0.500000000
C        0.722451380   0.133571512   0.500000000
C        0.944224709   0.066428891   0.500000000
C        0.889118045   0.133571512   0.500000000
C        0.110883585   0.266427183   0.500000000
C        0.055777521   0.333574744   0.500000000
C        0.277550250   0.266427181   0.500000000
C        0.222444192   0.333574743   0.500000000
C        0.444216916   0.266427180   0.500000000
C        0.389110860   0.333574744   0.500000000
C        0.610883578   0.266427177   0.500000000
C        0.555777520   0.333574742   0.500000000
C        0.777550245   0.266427182   0.500000000
C        0.722444183   0.333574740   0.500000000
C        0.944216916   0.266427185   0.500000000
C        0.889110851   0.333574742   0.500000000
C        0.110886737   0.466430754   0.500000000
C        0.055779938   0.533569249   0.500000000
C        0.277553405   0.466430752   0.500000000
C        0.222446608   0.533569254   0.500000000
C        0.444220067   0.466430751   0.500000000
C        0.389113274   0.533569253   0.500000000
C        0.610886726   0.466430747   0.500000000
C        0.555779933   0.533569249   0.500000000
C        0.777553392   0.466430746   0.500000000
C        0.722446595   0.533569248   0.500000000
C        0.944220062   0.466430751   0.500000000
C        0.889113263   0.533569246   0.500000000
C        0.110889149   0.666425258   0.500000000
C        0.055783084   0.733572815   0.500000000
C        0.277555817   0.666425260   0.500000000
C        0.222449755   0.733572818   0.500000000
C        0.444222480   0.666425258   0.500000000
C        0.389116422   0.733572823   0.500000000
C        0.610889140   0.666425256   0.500000000
C        0.555783084   0.733572820   0.500000000
C        0.777555808   0.666425257   0.500000000
C        0.722449750   0.733572819   0.500000000
C        0.944222479   0.666425256   0.500000000
C        0.889116415   0.733572817   0.500000000
C        0.110881955   0.866428488   0.500000000
C        0.055775291   0.933571109   0.500000000
C        0.277548620   0.866428488   0.500000000
C        0.222441962   0.933571111   0.500000000
C        0.444215282   0.866428487   0.500000000
C        0.389108627   0.933571112   0.500000000
C        0.610881940   0.866428482   0.500000000
C        0.555775288   0.933571112   0.500000000
C        0.777548609   0.866428487   0.500000000
C        0.722441950   0.933571110   0.500000000
C        0.944215281   0.866428488   0.500000000
C        0.889108614   0.933571106   0.500000000

     Writing output data file graphene.save
     Check: negative starting charge=   -0.002532
     NEW-OLD atomic charge density approx. for the potential
     Check: negative starting charge=   -0.002532

     Self-consistent Calculation

[...]

     Threshold (ethr) on eigenvalues was too large:
     Diagonalizing with lowered threshold

     Davidson diagonalization with overlap
     ethr =  7.95E-13,  avg # of iterations =  5.0

[...]

     total energy              =    -683.76235776 Ry
     Harris-Foulkes estimate   =    -683.76235776 Ry
     estimated scf accuracy    <          1.3E-11 Ry

     iteration #  7     ecut=    40.00 Ry     beta=0.70
     Davidson diagonalization with overlap
     ethr =  1.00E-13,  avg # of iterations =  1.0

     End of self-consistent calculation

          k = 0.0000 0.0000 0.0000 ( 46005 PWs)   bands (ev):

   -20.3552 -19.6792 -19.6792 -19.5607 -19.5607 -19.4590 -19.4590 -18.3277
   -18.3277 -18.0329 -18.0329 -17.6934 -17.6934 -17.6853 -17.6853 -17.2362
   -17.2362 -16.8708 -16.8707 -15.8455 -15.8455 -15.5678 -15.5678 -15.4040
   -15.4040 -15.1527 -15.1527 -14.7994 -14.6697 -14.6697 -14.1158 -13.5929
   -13.5929 -13.3353 -13.3352 -12.6787 -12.6787 -12.3984 -12.3983 -12.3384
   -12.3384 -11.8898 -11.8894 -11.2636 -11.2636 -10.8478 -10.8478 -10.3056
   -10.3056 -10.0723 -10.0723  -9.9050  -9.9050  -9.5936  -9.5930  -9.5248
    -9.5248  -9.0180  -9.0180  -8.7928  -8.7928  -8.4409  -8.0906  -8.0906
    -7.9966  -7.9966  -7.8054  -7.6406  -7.6406  -7.6270  -7.6270  -7.5024
    -7.5024  -7.3865  -7.3863  -7.3651  -7.3651  -7.3634  -7.3628  -7.1334
    -7.1334  -7.1046  -7.1046  -6.7154  -6.7153  -6.6612  -6.6612  -6.0773
    -6.0773  -6.0656  -6.0656  -5.7428  -5.7428  -5.4709  -5.4709  -5.4235
    -5.4235  -5.3623  -5.3623  -5.3608  -5.3608  -5.2070  -5.2066  -4.8876
    -4.8876  -4.5682  -4.5682  -4.2428  -3.8722  -3.3858  -3.3855  -3.3538
    -3.3537  -2.9876  -2.9876  -2.9783  -2.9477  -2.9477  -2.1638  -2.1638
     0.2177   0.2177   0.5986   0.5986   0.7544   1.0598   1.0598   1.0763
     1.0763   1.6338   1.6340   2.0855   2.0855   2.7018   3.0220   3.0220
     3.6161   3.6161   3.7762   3.7762   3.8056   3.8056   4.0248   4.0249

     the Fermi energy is    -1.3382 ev

!    total energy              =    -683.76235776 Ry
     Harris-Foulkes estimate   =    -683.76235776 Ry
     estimated scf accuracy    <          3.4E-13 Ry

     The total energy is the sum of the following terms:

     one-electron contribution =   -2681.71617283 Ry
     hartree contribution      =    1388.37203648 Ry
     xc contribution           =    -208.90979023 Ry
     ewald contribution        =     818.96854548 Ry
     Dispersion Correction     =      -0.24288876 Ry
     smearing contrib. (-TS)   =      -0.23408790 Ry

     convergence has been achieved in   7 iterations

     Forces acting on atoms (Ry/au):

     atom    1 type  1   force =     0.00003247    0.00001638    0.00000000
     atom    2 type  1   force =     0.00000740   -0.00001276    0.00000000
     atom    3 type  1   force =     0.00003261    0.00001650    0.00000000
     atom    4 type  1   force =     0.00000732   -0.00001276    0.00000000
     atom    5 type  1   force =     0.00003265    0.00001654    0.00000000
     atom    6 type  1   force =     0.00000723   -0.00001292    0.00000000
     atom    7 type  1   force =     0.00003273    0.00001654    0.00000000
     atom    8 type  1   force =     0.00000737   -0.00001283    0.00000000
     atom    9 type  1   force =     0.00003268    0.00001651    0.00000000
     atom   10 type  1   force =     0.00000741   -0.00001275    0.00000000
     atom   11 type  1   force =     0.00003263    0.00001645    0.00000000
     atom   12 type  1   force =     0.00000749   -0.00001272   -0.00000000
     atom   13 type  1   force =    -0.00000049    0.00001638    0.00000000
     atom   14 type  1   force =    -0.00002908   -0.00001169   -0.00000000
     atom   15 type  1   force =    -0.00000037    0.00001642    0.00000000
     atom   16 type  1   force =    -0.00002922   -0.00001172    0.00000000
     atom   17 type  1   force =    -0.00000041    0.00001646    0.00000000
     atom   18 type  1   force =    -0.00002930   -0.00001175    0.00000000
     atom   19 type  1   force =    -0.00000044    0.00001648    0.00000000
     atom   20 type  1   force =    -0.00002911   -0.00001172    0.00000000
     atom   21 type  1   force =    -0.00000039    0.00001638    0.00000000
     atom   22 type  1   force =    -0.00002913   -0.00001168    0.00000000
     atom   23 type  1   force =    -0.00000048    0.00001635    0.00000000
     atom   24 type  1   force =    -0.00002913   -0.00001169   -0.00000000
     atom   25 type  1   force =     0.00001067    0.00001692    0.00000000
     atom   26 type  1   force =    -0.00001079   -0.00001698    0.00000000
     atom   27 type  1   force =     0.00001059    0.00001696    0.00000000
     atom   28 type  1   force =    -0.00001073   -0.00001705    0.00000000
     atom   29 type  1   force =     0.00001069    0.00001697    0.00000000
     atom   30 type  1   force =    -0.00001076   -0.00001705   -0.00000000
     atom   31 type  1   force =     0.00001076    0.00001705   -0.00000000
     atom   32 type  1   force =    -0.00001069   -0.00001697    0.00000000
     atom   33 type  1   force =     0.00001073    0.00001705    0.00000000
     atom   34 type  1   force =    -0.00001059   -0.00001696    0.00000000
     atom   35 type  1   force =     0.00001079    0.00001698    0.00000000
     atom   36 type  1   force =    -0.00001067   -0.00001692    0.00000000
     atom   37 type  1   force =     0.00002913    0.00001169   -0.00000000
     atom   38 type  1   force =     0.00000048   -0.00001635    0.00000000
     atom   39 type  1   force =     0.00002913    0.00001168   -0.00000000
     atom   40 type  1   force =     0.00000039   -0.00001638    0.00000000
     atom   41 type  1   force =     0.00002911    0.00001172    0.00000000
     atom   42 type  1   force =     0.00000044   -0.00001648    0.00000000
     atom   43 type  1   force =     0.00002930    0.00001175   -0.00000000
     atom   44 type  1   force =     0.00000041   -0.00001646   -0.00000000
     atom   45 type  1   force =     0.00002922    0.00001172    0.00000000
     atom   46 type  1   force =     0.00000037   -0.00001642    0.00000000
     atom   47 type  1   force =     0.00002908    0.00001169   -0.00000000
     atom   48 type  1   force =     0.00000049   -0.00001638    0.00000000
     atom   49 type  1   force =    -0.00000749    0.00001272   -0.00000000
     atom   50 type  1   force =    -0.00003263   -0.00001645   -0.00000000
     atom   51 type  1   force =    -0.00000741    0.00001275    0.00000000
     atom   52 type  1   force =    -0.00003268   -0.00001651    0.00000000
     atom   53 type  1   force =    -0.00000737    0.00001283    0.00000000
     atom   54 type  1   force =    -0.00003273   -0.00001654    0.00000000
     atom   55 type  1   force =    -0.00000723    0.00001292    0.00000000
     atom   56 type  1   force =    -0.00003265   -0.00001654    0.00000000
     atom   57 type  1   force =    -0.00000732    0.00001276    0.00000000
     atom   58 type  1   force =    -0.00003261   -0.00001650    0.00000000
     atom   59 type  1   force =    -0.00000740    0.00001276    0.00000000
     atom   60 type  1   force =    -0.00003247   -0.00001638    0.00000000

     Total force =     0.000196     Total SCF correction =     0.000001

     bfgs converged in   7 scf cycles and   4 bfgs steps
     (criteria: energy <  1.0E-06, force <  1.0E-05)

     End of BFGS Geometry Optimization

     Final energy   =    -683.7623577577 Ry
Begin final coordinates

ATOMIC_POSITIONS (crystal)
C        0.110891386   0.066428894   0.500000000
C        0.055784719   0.133571512   0.500000000
C        0.277558050   0.066428890   0.500000000
C        0.222451391   0.133571513   0.500000000
C        0.444224712   0.066428888   0.500000000
C        0.389118060   0.133571518   0.500000000
C        0.610891373   0.066428888   0.500000000
C        0.555784718   0.133571513   0.500000000
C        0.777558038   0.066428889   0.500000000
C        0.722451380   0.133571512   0.500000000
C        0.944224709   0.066428891   0.500000000
C        0.889118045   0.133571512   0.500000000
C        0.110883585   0.266427183   0.500000000
C        0.055777521   0.333574744   0.500000000
C        0.277550250   0.266427181   0.500000000
C        0.222444192   0.333574743   0.500000000
C        0.444216916   0.266427180   0.500000000
C        0.389110860   0.333574744   0.500000000
C        0.610883578   0.266427177   0.500000000
C        0.555777520   0.333574742   0.500000000
C        0.777550245   0.266427182   0.500000000
C        0.722444183   0.333574740   0.500000000
C        0.944216916   0.266427185   0.500000000
C        0.889110851   0.333574742   0.500000000
C        0.110886737   0.466430754   0.500000000
C        0.055779938   0.533569249   0.500000000
C        0.277553405   0.466430752   0.500000000
C        0.222446608   0.533569254   0.500000000
C        0.444220067   0.466430751   0.500000000
C        0.389113274   0.533569253   0.500000000
C        0.610886726   0.466430747   0.500000000
C        0.555779933   0.533569249   0.500000000
C        0.777553392   0.466430746   0.500000000
C        0.722446595   0.533569248   0.500000000
C        0.944220062   0.466430751   0.500000000
C        0.889113263   0.533569246   0.500000000
C        0.110889149   0.666425258   0.500000000
C        0.055783084   0.733572815   0.500000000
C        0.277555817   0.666425260   0.500000000
C        0.222449755   0.733572818   0.500000000
C        0.444222480   0.666425258   0.500000000
C        0.389116422   0.733572823   0.500000000
C        0.610889140   0.666425256   0.500000000
C        0.555783084   0.733572820   0.500000000
C        0.777555808   0.666425257   0.500000000
C        0.722449750   0.733572819   0.500000000
C        0.944222479   0.666425256   0.500000000
C        0.889116415   0.733572817   0.500000000
C        0.110881955   0.866428488   0.500000000
C        0.055775291   0.933571109   0.500000000
C        0.277548620   0.866428488   0.500000000
C        0.222441962   0.933571111   0.500000000
C        0.444215282   0.866428487   0.500000000
C        0.389108627   0.933571112   0.500000000
C        0.610881940   0.866428482   0.500000000
C        0.555775288   0.933571112   0.500000000
C        0.777548609   0.866428487   0.500000000
C        0.722441950   0.933571110   0.500000000
C        0.944215281   0.866428488   0.500000000
C        0.889108614   0.933571106   0.500000000
End final coordinates

     Writing output data file graphene.save

     General routines

     Parallel routines

   This run was terminated on:  17:36:20   8Nov2016

   JOB DONE.