     Program PWSCF v.5.4.0 starts on  7Apr2017 at 16:17:41

     Current dimensions of program PWSCF are:
     Max number of different atomic species (ntypx) = 10
     Max number of k-points (npk) =  40000
     Max angular momentum in pseudopotentials (lmaxx) =  3
     WARNING: atomic wfc #  2 for atom type 4 has zero norm
     WARNING: atomic wfc #  4 for atom type 4 has zero norm
     WARNING: atomic wfc #  5 for atom type 4 has zero norm

     Parameters for Dispersion Correction:
       atom      VdW radius       C_6

        Cu         2.952        374.666
        C_h        2.744         60.710
        C          2.744         60.710
        O          2.536         24.284
        H          1.892          4.857

     Generating pointlists ...
     new r_m :   0.1101 (alat units)  1.5347 (a.u.) for type    1
     new r_m :   0.0797 (alat units)  1.1117 (a.u.) for type    2
     new r_m :   0.0792 (alat units)  1.1036 (a.u.) for type    3
     new r_m :   0.0563 (alat units)  0.7848 (a.u.) for type    4
     new r_m :   0.0563 (alat units)  0.7848 (a.u.) for type    5

     bravais-lattice index     =            0
     lattice parameter (alat)  =      13.9425  a.u.
     unit-cell volume          =   21209.0878 (a.u.)^3
     number of atoms/cell      =          150
     number of atomic types    =            5
     number of electrons       =      1299.00
     number of Kohn-Sham states=          780
     kinetic-energy cutoff     =      80.0000  Ry
     charge density cutoff     =     320.0000  Ry
     convergence threshold     =      1.0E-08
     mixing beta               =       0.7000
     number of iterations used =            8  local-TF  mixing
     Exchange-correlation      =  SLA  PW   PBE  PBE ( 1  4  3  4 0 0)

     celldm(1)=  13.942539  celldm(2)=   0.000000  celldm(3)=   0.000000
     celldm(4)=   0.000000  celldm(5)=   0.000000  celldm(6)=   0.000000

     crystal axes: (cart. coord. in units of alat)
               a(1) = (   1.000000   0.000000   0.000000 )
               a(2) = (   0.000000   2.309401   0.000000 )
               a(3) = (   0.000000   0.000000   3.388418 )

     reciprocal axes: (cart. coord. in units 2 pi/alat)
               b(1) = (  1.000000  0.000000  0.000000 )
               b(2) = (  0.000000  0.433013  0.000000 )
               b(3) = (  0.000000  0.000000  0.295123 )

     PseudoPot. # 1 for Cu read from file:
     /home/549/hxw549/Short/pseudopotentials/Cu.pbe-n-van_ak.UPF
     MD5 check sum: 601f7c30f7467666bec936e0661ce3e1
     Pseudo is Ultrasoft + core correction, Zval = 11.0
     Generated by new atomic code, or converted to UPF format
     Using radial grid of  867 points,  6 beta functions with:
                l(1) =   0
                l(2) =   0
                l(3) =   1
                l(4) =   1
                l(5) =   2
                l(6) =   2
     Q(r) pseudized with  8 coefficients,  rinner =    1.400   1.400   1.400
                                                       1.400   1.400

     PseudoPot. # 2 for C  read from file:
     /home/549/hxw549/Short/pseudopotentials/C.star1s-pbe-mt_gipaw.UPF
     MD5 check sum: ef0cb3dee31bd9e4ba2a832a2c716264
     Pseudo is Norm-conserving, Zval =  5.0
     Generated by new atomic code, or converted to UPF format
     Using radial grid of 1073 points,  1 beta functions with:
                l(1) =   0

     PseudoPot. # 3 for C  read from file:
     /home/549/hxw549/Short/pseudopotentials/C.pbe-mt_gipaw.UPF
     MD5 check sum: 5ac2f21f2c440b14befe521540822c15
     Pseudo is Norm-conserving, Zval =  4.0
     Generated by new atomic code, or converted to UPF format
     Using radial grid of 1073 points,  1 beta functions with:
                l(1) =   0

     PseudoPot. # 4 for O  read from file:
     /home/549/hxw549/Short/pseudopotentials/O.pbe-van_gipaw.UPF
     MD5 check sum: 5ce2a047509d4f331db576c963e74b29
     Pseudo is Ultrasoft, Zval =  6.0
     Generated by new atomic code, or converted to UPF format
     Using radial grid of 1095 points,  4 beta functions with:
                l(1) =   0
                l(2) =   0
                l(3) =   1
                l(4) =   1
     Q(r) pseudized with 0 coefficients

     PseudoPot. # 5 for H  read from file:
     /home/549/hxw549/Short/pseudopotentials/H.pbe-van_ak.UPF
     MD5 check sum: 077eb6d537518a38cb46c6de387227b7
     Pseudo is Ultrasoft, Zval =  1.0
     Generated by new atomic code, or converted to UPF format
     Using radial grid of  615 points,  1 beta functions with:
                l(1) =   0
     Q(r) pseudized with  8 coefficients,  rinner =    0.800

     atomic species   valence    mass     pseudopotential
        Cu            11.00    63.54600     Cu( 1.00)
        C_h            5.00    12.01070     C ( 1.00)
        C              4.00    12.01070     C ( 1.00)
        O              6.00    15.99940     O ( 1.00)
        H              1.00     1.00783     H ( 1.00)

     Starting magnetic structure
     atomic species   magnetization
        Cu           0.000
        C_h          0.000
        C            0.000
        O            1.000
        H            0.000

     No symmetry found

   Cartesian axes

     site n.     atom                  positions (alat units)
         1           Cu  tau(   1) = (   0.0000278  -0.0002768   0.9972875  )
         2           Cu  tau(   2) = (   0.2500214   0.2300592   0.9964781  )
         3           Cu  tau(   3) = (   0.4999379  -0.0008021   0.9967565  )
         4           Cu  tau(   4) = (   0.7499938   0.2301066   0.9966299  )
         5           Cu  tau(   5) = (   0.0000368   0.4611612   0.9964670  )
         6           Cu  tau(   6) = (   0.2501556   0.6926513   0.9969316  )
         7           Cu  tau(   7) = (   0.5000725   0.4614195   0.9968158  )
         8           Cu  tau(   8) = (   0.7500733   0.6926077   0.9969288  )
         9           Cu  tau(   9) = (   0.0001817   0.9237007   0.9969673  )
        10           Cu  tau(  10) = (   0.2501864   1.1547399   0.9969388  )
        11           Cu  tau(  11) = (   0.5001000   0.9236813   0.9971421  )
        12           Cu  tau(  12) = (   0.7500350   1.1547883   0.9969509  )
        13           Cu  tau(  13) = (   0.0000256   1.3862740   0.9964245  )
        14           Cu  tau(  14) = (   0.2500182   1.6173874   0.9965674  )
        15           Cu  tau(  15) = (   0.5000855   1.3860092   0.9969524  )
        16           Cu  tau(  16) = (   0.7500020   1.6173469   0.9967271  )
        17           Cu  tau(  17) = (   0.0000589   1.8476413   0.9974502  )
        18           Cu  tau(  18) = (   0.2497677   2.0783648   0.9976647  )
        19           Cu  tau(  19) = (   0.4999083   1.8482307   0.9967929  )
        20           Cu  tau(  20) = (   0.7501842   2.0783708   0.9971403  )
        21           Cu  tau(  21) = (   0.0001222   0.2301461   1.2453200  )
        22           Cu  tau(  22) = (   0.2499160  -0.0003375   1.2457320  )
        23           Cu  tau(  23) = (   0.5000760   0.2296546   1.2445751  )
        24           Cu  tau(  24) = (   0.7501253  -0.0008082   1.2452774  )
        25           Cu  tau(  25) = (   0.0004560   0.6919042   1.2444398  )
        26           Cu  tau(  26) = (   0.2502604   0.4604283   1.2441641  )
        27           Cu  tau(  27) = (   0.5005290   0.6920792   1.2449013  )
        28           Cu  tau(  28) = (   0.7502594   0.4606436   1.2444322  )
        29           Cu  tau(  29) = (   0.0004845   1.1556372   1.2443765  )
        30           Cu  tau(  30) = (   0.2506070   0.9237561   1.2452404  )
        31           Cu  tau(  31) = (   0.5004996   1.1552771   1.2450168  )
        32           Cu  tau(  32) = (   0.7506209   0.9237195   1.2449593  )
        33           Cu  tau(  33) = (   0.0001889   1.6170091   1.2456247  )
        34           Cu  tau(  34) = (   0.2502719   1.3869351   1.2442606  )
        35           Cu  tau(  35) = (   0.5000476   1.6177597   1.2448016  )
        36           Cu  tau(  36) = (   0.7502719   1.3867859   1.2444933  )
        37           Cu  tau(  37) = (   0.0001297   2.0783238   1.2457288  )
        38           Cu  tau(  38) = (   0.2498837   1.8474392   1.2461817  )
        39           Cu  tau(  39) = (   0.4998735   2.0782826   1.2456599  )
        40           Cu  tau(  40) = (   0.7501762   1.8480311   1.2455042  )
        41           Cu  tau(  41) = (   0.0002718  -0.0011296   1.4951325  )
        42           Cu  tau(  42) = (   0.2502480   0.2303139   1.4952280  )
        43           Cu  tau(  43) = (   0.5000574  -0.0006898   1.4948808  )
        44           Cu  tau(  44) = (   0.7505846   0.2291334   1.4938282  )
        45           Cu  tau(  45) = (   0.0009624   0.4607787   1.4943109  )
        46           Cu  tau(  46) = (   0.2514145   0.6908209   1.4926831  )
        47           Cu  tau(  47) = (   0.5008195   0.4598745   1.4933701  )
        48           Cu  tau(  48) = (   0.7516451   0.6913243   1.4932782  )
        49           Cu  tau(  49) = (   0.0019318   0.9239193   1.4927730  )
        50           Cu  tau(  50) = (   0.2514121   1.1564455   1.4932287  )
        51           Cu  tau(  51) = (   0.5021641   0.9235540   1.4935214  )
        52           Cu  tau(  52) = (   0.7518116   1.1562283   1.4932047  )
        53           Cu  tau(  53) = (   0.0011789   1.3861859   1.4950249  )
        54           Cu  tau(  54) = (   0.2501668   1.6161289   1.4962436  )
        55           Cu  tau(  55) = (   0.5008242   1.3872970   1.4934908  )
        56           Cu  tau(  56) = (   0.7508208   1.6176916   1.4943697  )
        57           Cu  tau(  57) = (   0.0003793   1.8479269   1.4954295  )
        58           Cu  tau(  58) = (   0.2502332   2.0783539   1.4953567  )
        59           Cu  tau(  59) = (   0.5000263   1.8477072   1.4952729  )
        60           Cu  tau(  60) = (   0.7499856   2.0782028   1.4954651  )
[...]
       105           C   tau( 105) = (   0.3334301   0.0964012   2.3837630  )
       106           C   tau( 106) = (   0.3336820   0.2893218   2.3841831  )
       107           C   tau( 107) = (   0.5002537   0.0000620   2.3840475  )
       108           C   tau( 108) = (   0.5005861   0.3857862   2.3862407  )
       109           C   tau( 109) = (   0.6668225   0.0970972   2.3821103  )
       110           C   tau( 110) = (   0.6668789   0.2897006   2.3793787  )
       111           C   tau( 111) = (   0.8334847   0.0007853   2.3854227  )
       112           C   tau( 112) = (   0.8338985   0.3855644   2.3821889  )
       113           C   tau( 113) = (   0.0007087   0.6732112   2.4042444  )
       114           C   tau( 114) = (   0.0006883   0.8656023   2.4132578  )
       115           C   tau( 115) = (   0.1676172   0.5766239   2.4117145  )
       116           C   tau( 116) = (   0.1654579   0.9620878   2.4451114  )
       117           C   tau( 117) = (   0.3341007   0.6722734   2.4322949  )
       118           C   tau( 118) = (   0.3325860   0.8659509   2.4520552  )
       119           C   tau( 119) = (   0.5009673   0.5775343   2.4087855  )
       120           C_h tau( 120) = (   0.5017558   0.9623222   2.4385030  )
[...]
     atom:   20    charge:    8.6070    magn:   -0.0000    constr:    0.0000
     atom:   21    charge:    8.6089    magn:   -0.0000    constr:    0.0000
     atom:   22    charge:    8.6091    magn:   -0.0000    constr:    0.0000
     atom:   23    charge:    8.6088    magn:    0.0000    constr:    0.0000
     atom:   24    charge:    8.6091    magn:   -0.0000    constr:    0.0000
     atom:   25    charge:    8.6088    magn:   -0.0000    constr:    0.0000
     atom:   26    charge:    8.6088    magn:    0.0000    constr:    0.0000
     atom:   27    charge:    8.6088    magn:   -0.0000    constr:    0.0000
     atom:   28    charge:    8.6087    magn:   -0.0000    constr:    0.0000
     atom:   29    charge:    8.6084    magn:   -0.0000    constr:    0.0000
     atom:   30    charge:    8.6083    magn:    0.0000    constr:    0.0000
     atom:   31    charge:    8.6085    magn:   -0.0000    constr:    0.0000
     atom:   32    charge:    8.6084    magn:    0.0000    constr:    0.0000
     atom:   33    charge:    8.6090    magn:   -0.0000    constr:    0.0000
     atom:   34    charge:    8.6088    magn:   -0.0000    constr:    0.0000
     atom:   35    charge:    8.6091    magn:   -0.0000    constr:    0.0000
     atom:   36    charge:    8.6087    magn:   -0.0000    constr:    0.0000
     atom:   37    charge:    8.6089    magn:    0.0000    constr:    0.0000
     atom:   38    charge:    8.6089    magn:    0.0000    constr:    0.0000
     atom:   39    charge:    8.6087    magn:    0.0000    constr:    0.0000
     atom:   40    charge:    8.6090    magn:   -0.0000    constr:    0.0000
     atom:   41    charge:    8.6083    magn:    0.0000    constr:    0.0000
     atom:   42    charge:    8.6074    magn:   -0.0000    constr:    0.0000
     atom:   43    charge:    8.6081    magn:   -0.0000    constr:    0.0000
     atom:   44    charge:    8.6083    magn:    0.0000    constr:    0.0000
     atom:   45    charge:    8.6081    magn:    0.0000    constr:    0.0000
     atom:   46    charge:    8.6099    magn:    0.0000    constr:    0.0000
     atom:   47    charge:    8.6084    magn:    0.0000    constr:    0.0000
     atom:   48    charge:    8.6085    magn:    0.0000    constr:    0.0000
     atom:   49    charge:    8.6082    magn:   -0.0000    constr:    0.0000
     atom:   50    charge:    8.6092    magn:    0.0000    constr:    0.0000
     atom:   51    charge:    8.6085    magn:    0.0000    constr:    0.0000
     atom:   52    charge:    8.6081    magn:   -0.0000    constr:    0.0000
     atom:   53    charge:    8.6081    magn:    0.0000    constr:    0.0000
     atom:   54    charge:    8.6077    magn:    0.0000    constr:    0.0000
     atom:   55    charge:    8.6087    magn:    0.0000    constr:    0.0000
     atom:   56    charge:    8.6086    magn:    0.0000    constr:    0.0000
     atom:   57    charge:    8.6084    magn:   -0.0000    constr:    0.0000
     atom:   58    charge:    8.6084    magn:    0.0000    constr:    0.0000
     atom:   59    charge:    8.6084    magn:   -0.0000    constr:    0.0000
     atom:   60    charge:    8.6081    magn:   -0.0000    constr:    0.0000
[...]
     atom:  136    charge:    1.7039    magn:   -0.0000    constr:    0.0000
     atom:  137    charge:    1.7091    magn:   -0.0000    constr:    0.0000
     atom:  138    charge:    1.7030    magn:    0.0000    constr:    0.0000
     atom:  139    charge:    1.7037    magn:   -0.0000    constr:    0.0000
     atom:  140    charge:    1.7074    magn:    0.0000    constr:    0.0000
     atom:  141    charge:    1.7023    magn:    0.0000    constr:    0.0000
     atom:  142    charge:    1.7061    magn:    0.0000    constr:    0.0000
     atom:  143    charge:    1.7054    magn:   -0.0000    constr:    0.0000
     atom:  144    charge:    1.7052    magn:    0.0000    constr:    0.0000
     atom:  145    charge:    1.7058    magn:    0.0000    constr:    0.0000
     atom:  146    charge:    1.7082    magn:   -0.0000    constr:    0.0000
     atom:  147    charge:    1.7038    magn:   -0.0000    constr:    0.0000
     atom:  148    charge:    1.7045    magn:    0.0000    constr:    0.0000
     atom:  149    charge:    1.7012    magn:   -0.0000    constr:    0.0000
     atom:  150    charge:    1.7046    magn:    0.0000    constr:    0.0000

     End of self-consistent calculation

 ------ SPIN UP ------------

          k = 0.0000 0.0000 0.0000 (256287 PWs)   bands (ev):

   -17.9897 -17.1011 -16.1774 -16.0112 -15.3594 -14.9635 -14.6988 -14.5976
   -14.1976 -14.1370 -14.0609 -14.0518 -13.4030 -13.2551 -13.1011 -13.0525
   -13.0114 -12.9910 -11.6074 -11.4694 -11.4279 -11.3245 -11.1438 -10.2735
    -9.7155  -9.7044  -9.5579  -9.4670  -8.9214  -8.7329  -8.6072  -8.5303
    -7.9733  -7.8410  -7.6982  -7.5881  -7.5109  -7.5017  -7.4641  -7.4445
    -6.3605  -6.2909  -6.2757  -6.0603  -5.9713  -5.9525  -5.8862  -5.8225
    -5.7902  -5.7814  -5.4546  -5.4332  -5.0661  -4.7980  -4.7480  -4.6846
    -4.5934  -4.5719  -4.5074  -4.3688  -4.1474  -4.0959  -3.9865  -3.9564
    -3.9099  -3.8818  -3.5737  -3.5412  -3.5134  -3.4745  -3.4545  -3.4035
    -3.3659  -3.3549  -3.3439  -3.2895  -3.0926  -3.0644  -3.0480  -2.9862
    -2.9712  -2.9503  -2.9415  -2.9172  -2.8918  -2.8214  -2.7955  -2.7300
    -2.6976  -2.6728  -2.6622  -2.6480  -2.5947  -2.5448  -2.4590  -2.3276
    -2.2995  -2.2826  -2.2613  -2.1963  -2.1575  -2.1515  -2.1371  -2.1295
    -2.1196  -2.1179  -2.1165  -2.1150  -2.0216  -2.0171  -1.9973  -1.9863
    -1.9780  -1.9696  -1.9667  -1.9118  -1.8893  -1.7980  -1.7403  -1.7047
    -1.7035  -1.6869  -1.6840  -1.6502  -1.6428  -1.6296  -1.6198  -1.6188
    -1.5763  -1.5726  -1.5366  -1.5277  -1.5270  -1.5183  -1.5168  -1.5033
    -1.5002  -1.4867  -1.4819  -1.4771  -1.4403  -1.4187  -1.3764  -1.3468
    -1.3412  -1.3302  -1.3167  -1.3131  -1.3032  -1.2631  -1.2458  -1.2252
    -1.2223  -1.2143  -1.1775  -1.1746  -1.1739  -1.1567  -1.1513  -1.1306
    -1.1268  -1.0888  -1.0629  -1.0565  -1.0473  -1.0308  -1.0204  -1.0074
    -1.0037  -1.0003  -0.9888  -0.9883  -0.9872  -0.9829  -0.9658  -0.9614
    -0.9524  -0.9499  -0.9368  -0.9178  -0.9123  -0.9017  -0.8956  -0.8917
    -0.8861  -0.8802  -0.8766  -0.8604  -0.8421  -0.8301  -0.8264  -0.8218
    -0.8200  -0.8191  -0.8177  -0.8169  -0.8162  -0.8137  -0.8109  -0.8096
    -0.8077  -0.8068  -0.8063  -0.7983  -0.7913  -0.7764  -0.7646  -0.7442
    -0.7316  -0.6894  -0.6591  -0.6512  -0.6500  -0.6424  -0.6331  -0.6270
    -0.6140  -0.6062  -0.6047  -0.5849  -0.5828  -0.5743  -0.5637  -0.5623
    -0.5563  -0.5529  -0.5291  -0.5227  -0.5216  -0.5202  -0.5186  -0.5067
    -0.5038  -0.4774  -0.4585  -0.4571  -0.4066  -0.4049  -0.4018  -0.4006
    -0.3826  -0.3771  -0.3727  -0.3718  -0.3695  -0.3668  -0.3628  -0.3621
    -0.3589  -0.3521  -0.3495  -0.3467  -0.3441  -0.3404  -0.3347  -0.3316
    -0.3167  -0.3073  -0.2659  -0.2603  -0.2597  -0.2543  -0.2504  -0.2335
    -0.2277  -0.2246  -0.2231  -0.2179  -0.2155  -0.2117  -0.2075  -0.2036
    -0.1927  -0.1866  -0.1846  -0.1832  -0.1799  -0.1784  -0.1765  -0.1725
    -0.1608  -0.1601  -0.1552  -0.1478  -0.1465  -0.1452  -0.1384  -0.1241
    -0.0962  -0.0915  -0.0865  -0.0734  -0.0566  -0.0524  -0.0401  -0.0376
    -0.0337  -0.0313  -0.0252  -0.0232  -0.0225  -0.0200  -0.0143  -0.0088
    -0.0014   0.0140   0.0253   0.0277   0.0337   0.0408   0.0450   0.0547
     0.0568   0.0605   0.0616   0.0643   0.0720   0.0789   0.0843   0.0862
     0.0883   0.0892   0.0976   0.0993   0.1013   0.1070   0.1092   0.1110
     0.1251   0.1307   0.1339   0.1386   0.1475   0.1629   0.1677   0.1920
     0.1980   0.2001   0.2231   0.2244   0.2481   0.2566   0.2652   0.2710
     0.2749   0.2759   0.2839   0.2891   0.2903   0.2986   0.3085   0.3175
     0.3269   0.3326   0.3549   0.3608   0.3664   0.3697   0.3823   0.3837
     0.3846   0.3930   0.4063   0.4150   0.4189   0.4230   0.4293   0.4310
     0.4436   0.4497   0.4568   0.4624   0.4633   0.4726   0.4800   0.4867
     0.5058   0.5086   0.5185   0.5237   0.5285   0.5326   0.5395   0.5414
     0.5491   0.5512   0.5557   0.5713   0.5745   0.5769   0.5779   0.5809
     0.5823   0.5839   0.5884   0.5913   0.5939   0.5972   0.6030   0.6046
     0.6107   0.6118   0.6282   0.6413   0.6424   0.6483   0.6497   0.6655
     0.6714   0.6833   0.6849   0.6882   0.6922   0.6939   0.6962   0.7006
     0.7047   0.7138   0.7148   0.7199   0.7227   0.7291   0.7309   0.7361
     0.7389   0.7446   0.7491   0.7525   0.7559   0.7634   0.7688   0.7788
     0.7812   0.7845   0.7858   0.7880   0.7923   0.7924   0.7930   0.7955
     0.8026   0.8059   0.8154   0.8222   0.8388   0.8463   0.8485   0.8501
     0.8539   0.8662   0.8689   0.8707   0.8785   0.8884   0.8938   0.9002
     0.9065   0.9185   0.9225   0.9247   0.9316   0.9346   0.9386   0.9433
     0.9443   0.9498   0.9525   0.9655   0.9742   0.9756   0.9793   0.9829
     0.9858   0.9866   0.9969   1.0001   1.0149   1.0168   1.0183   1.0215
[...]
     4.0123   4.0209   4.0407   4.0421   4.0455   4.0482   4.0935   4.1125
     4.2058   4.2742   4.2938   4.3474   4.4162   4.4294   4.7346   4.7703
     4.8857   4.9279   4.9520   5.0399   5.3795   5.4168   5.4645   5.5117
     5.7555   5.7589   5.8438   5.8738   5.9614   5.9878   6.1863   6.3901
     6.4336   6.4443   6.4580   6.5116   6.5171   6.5379   6.6038   6.6271
     6.6850   6.7043   6.7939   6.8129   6.8142   6.8294   6.8543   6.8902
     7.0644   7.0977   7.1177   7.1737   7.2197   7.3805   7.3995   7.5214
     7.5514   7.6033   7.6208   7.7294   7.7654   7.8001   7.8233   8.0300
     8.0397   8.0836   8.1768   8.2349   8.2608   8.3118   8.3239   8.3251
     8.3605   8.3959   8.4054   8.4355   8.4427   8.4653   8.5647   8.5724
     8.6255   8.6717   8.7092   8.7198   8.7504   8.7944   8.8287   8.8297
     8.8951   8.9259   8.9323   8.9967   9.0979   9.1377   9.1449   9.1488
     9.1775   9.2701   9.3225   9.3555   9.3765   9.3912   9.4895   9.5057
     9.5209   9.6010   9.6187   9.6596   9.6910   9.7844   9.8731   9.9852
    10.0732  10.0860  10.1516  10.1806

[...]

          k =-0.5000 0.0000 0.0000 (256496 PWs)   bands (ev):

[...]

 ------ SPIN DOWN ----------

[...]

          k = 0.2500-0.2165 0.0000 (256316 PWs)   bands (ev):

[...]

          k =-0.5000-0.2165 0.0000 (256328 PWs)   bands (ev):

   -17.9785 -17.0130 -15.8643 -15.7553 -15.7342 -15.3268 -15.1406 -15.0788
   -15.0347 -13.9908 -13.7706 -13.6404 -13.5984 -12.6035 -12.3825 -11.9391
   -11.9336 -11.8647 -11.7076 -11.6088 -11.5293 -11.4691 -11.4641 -11.3573
   -11.3365  -9.9661  -9.9548  -9.7091  -9.6632  -9.1583  -8.8522  -8.7217
    -8.6979  -8.2146  -8.1705  -7.9630  -7.9446  -6.4773  -6.3319  -6.2699
    -6.0662  -5.8965  -5.7768  -5.5581  -5.3112  -5.2558  -5.2423  -5.1590
    -5.1500  -5.1467  -5.1342  -5.1118  -4.9540  -4.9445  -4.5408  -4.4524
    -4.3269  -4.3112  -4.2884  -4.2843  -4.1983  -4.1976  -4.1762  -4.1607
    -4.1593  -4.1488  -4.0294  -3.9770  -3.8360  -3.8239  -3.8163  -3.8048
    -3.6958  -3.6896  -3.6719  -3.6362  -3.6203  -3.5569  -3.5486  -3.5367
    -3.4474  -3.4036  -3.1542  -3.0582  -3.0481  -3.0206  -2.9965  -2.7400
    -2.5763  -2.5573  -2.5432  -2.5411  -2.5339  -2.5135  -2.4889  -2.4738
    -2.4489  -2.3580  -2.3329  -2.3015  -2.1246  -2.1059  -2.0688  -2.0585
    -2.0435  -2.0343  -1.9996  -1.9913  -1.9702  -1.9618  -1.9518  -1.9120
    -1.8411  -1.7703  -1.7693  -1.7655  -1.7556  -1.6893  -1.6290  -1.5781
    -1.5216  -1.4842  -1.4640  -1.4635  -1.4608  -1.4565  -1.4544  -1.4484
    -1.4190  -1.4155  -1.4044  -1.3968  -1.3945  -1.3943  -1.3922  -1.3713
    -1.3537  -1.3534  -1.3504  -1.3487  -1.3456  -1.3446  -1.3413  -1.3246
    -1.3225  -1.3219  -1.3210  -1.3003  -1.2744  -1.2716  -1.2682  -1.2533
    -1.2498  -1.2024  -1.1904  -1.1837  -1.1619  -1.1561  -1.1553  -1.1545
    -1.1498  -1.1387  -1.1324  -1.1152  -1.1124  -1.0862  -1.0839  -1.0830
    -1.0810  -1.0781  -1.0764  -1.0690  -1.0685  -1.0641  -1.0599  -1.0272
    -1.0239  -1.0233  -1.0186  -1.0179  -1.0152  -1.0091  -1.0071  -1.0049
    -1.0027  -1.0014  -0.9997  -0.9941  -0.9915  -0.9836  -0.9797  -0.9681
    -0.8576  -0.8466  -0.8432  -0.8240  -0.8201  -0.8191  -0.8165  -0.7812
    -0.7569  -0.7504  -0.7448  -0.7394  -0.7335  -0.7316  -0.7283  -0.7266
    -0.7218  -0.7183  -0.7120  -0.7088  -0.6718  -0.6657  -0.6646  -0.6585
    -0.6521  -0.6506  -0.6458  -0.6445  -0.6350  -0.6259  -0.6235  -0.6133
    -0.5693  -0.5462  -0.5350  -0.5329  -0.5288  -0.5276  -0.5258  -0.4938
    -0.4730  -0.4693  -0.4530  -0.4388  -0.4155  -0.4139  -0.4128  -0.4116
    -0.4000  -0.3949  -0.3921  -0.3865  -0.3845  -0.3656  -0.3632  -0.3605
    -0.3578  -0.3553  -0.3476  -0.3419  -0.3348  -0.3242  -0.3082  -0.2925
    -0.2484  -0.2419  -0.2389  -0.2346  -0.2300  -0.2201  -0.2193  -0.2184
    -0.2156  -0.2033  -0.2010  -0.1996  -0.1686  -0.1398  -0.1335  -0.1285
    -0.1248  -0.1191  -0.1164  -0.1126  -0.1119  -0.1100  -0.1033  -0.1029
    -0.0749  -0.0736  -0.0733  -0.0685  -0.0673  -0.0657  -0.0608  -0.0588
    -0.0553  -0.0547  -0.0539  -0.0496  -0.0217  -0.0062  -0.0040   0.0051
     0.0121   0.0206   0.0280   0.0410   0.0465   0.0637   0.0794   0.0846
     0.0914   0.0989   0.1048   0.1078   0.1116   0.1143   0.1162   0.1182
     0.1201   0.1232   0.1252   0.1260   0.1285   0.1327   0.1332   0.1366
     0.1390   0.1431   0.1441   0.1480   0.1486   0.1511   0.1518   0.1571
     0.1613   0.1623   0.1654   0.1710   0.1869   0.1916   0.1918   0.1924
     0.1962   0.1975   0.2050   0.2126   0.2221   0.2358   0.2494   0.2503
     0.2586   0.2700   0.2768   0.2781   0.2891   0.3099   0.3164   0.3410
     0.3509   0.3568   0.3619   0.3648   0.3666   0.3736   0.3765   0.3815
     0.3868   0.3879   0.3889   0.3928   0.3955   0.3982   0.3985   0.4044
     0.4055   0.4061   0.4103   0.4136   0.4183   0.4212   0.4253   0.4326
     0.4368   0.4414   0.4446   0.4522   0.4642   0.4647   0.4751   0.4797
     0.4870   0.5069   0.5102   0.5108   0.5134   0.5142   0.5248   0.5272
     0.5355   0.5435   0.5458   0.5500   0.5536   0.5576   0.5577   0.5672
     0.5744   0.5831   0.5870   0.5900   0.5959   0.5988   0.6043   0.6074
     0.6103   0.6111   0.6149   0.6178   0.6192   0.6220   0.6240   0.6281
     0.6297   0.6314   0.6325   0.6408   0.6466   0.6631   0.6806   0.6874
     0.6929   0.7066   0.7147   0.7161   0.7182   0.7204   0.7258   0.7291
     0.7299   0.7316   0.7395   0.7412   0.7499   0.7519   0.7594   0.7615
     0.7658   0.7665   0.7717   0.7726   0.7740   0.7747   0.7750   0.7988
     0.8124   0.8217   0.8242   0.8270   0.8347   0.8417   0.8539   0.8546
     0.8606   0.8685   0.8767   0.8862   0.8899   0.8911   0.8953   0.8969
     0.9069   0.9119   0.9154   0.9443   0.9586   0.9668   0.9730   0.9774
     0.9814   1.0015   1.0070   1.0193   1.0261   1.0365   1.0410   1.0460
[...]
     4.3127   4.3621   4.3768   4.3960   4.4208   4.5457   4.5738   4.5741
     4.5963   4.6309   4.7020   4.7203   4.7878   4.8711   4.8790   4.9392
     4.9605   5.0529   5.0820   5.1117   5.1928   5.2009   5.2111   5.2389
     5.2712   5.2984   5.3214   5.3800   5.4199   5.4619   5.5123   5.5435
     5.6031   5.6962   5.7544   5.7675   5.7768   5.7881   5.7964   5.8780
     5.9069   5.9252   5.9412   6.3233   6.7875   6.8183   6.8413   6.8449
     7.1249   7.1541   7.1619   7.1644   7.1871   7.2261   7.2502   7.2715
     7.2996   7.3291   7.3460   7.3854   7.4117   7.4283   7.4460   7.5008
     7.5339   7.6540   7.6779   7.7635   7.7823   7.8721   7.8914   7.9647
     7.9889   8.0640   8.1455   8.1854   8.2412   8.2437   8.2957   8.3226
     8.3715   8.3781   8.4295   8.5984   8.9179   8.9293   8.9319   8.9644
     8.9658   8.9674   8.9728   8.9803   9.0012   9.0462   9.0640   9.1165
     9.1256   9.1319   9.1324   9.2128   9.3289   9.3333   9.3582   9.3800
     9.4931   9.5578   9.5761   9.5903   9.6183   9.6735   9.7289   9.7441
     9.9159   9.9529   9.9538   9.9584

     the Fermi energy is     3.3660 ev

!    total energy              =  -12740.14874936 Ry
     Harris-Foulkes estimate   =  -12740.14874942 Ry
     estimated scf accuracy    <          3.8E-09 Ry

     The total energy is the sum of the following terms:

     one-electron contribution = -109494.42139397 Ry
     hartree contribution      =   56113.68499819 Ry
     xc contribution           =   -4455.62164438 Ry
     ewald contribution        =   45102.56087558 Ry
     Dispersion Correction     =      -2.99769418 Ry
     smearing contrib. (-TS)   =      -3.35389060 Ry

     total magnetization       =     0.00 Bohr mag/cell
     absolute magnetization    =     0.00 Bohr mag/cell

     convergence has been achieved in  44 iterations

     Writing output data file gc.save

     General routines

     Parallel routines

   This run was terminated on:  23:20:32   7Apr2017

   JOB DONE.