     Program PWSCF v.5.4.0 starts on  1May2017 at  9: 3:21

     Current dimensions of program PWSCF are:
     Max number of different atomic species (ntypx) = 10
     Max number of k-points (npk) =  40000
     Max angular momentum in pseudopotentials (lmaxx) =  3

     Parameters for Dispersion Correction:
       atom      VdW radius       C_6

        Cu         2.952        374.666
        C_h        2.744         60.710
        C          2.744         60.710
        H          1.892          4.857

     bravais-lattice index     =            0
     lattice parameter (alat)  =      13.9425  a.u.
     unit-cell volume          =   21209.0878 (a.u.)^3
     number of atoms/cell      =          153
     number of atomic types    =            4
     number of electrons       =      1300.00
     number of Kohn-Sham states=          780
     kinetic-energy cutoff     =      80.0000  Ry
     charge density cutoff     =     320.0000  Ry
     convergence threshold     =      1.0E-08
     mixing beta               =       0.7000
     number of iterations used =            8  local-TF  mixing
     Exchange-correlation      =  SLA  PW   PBE  PBE ( 1  4  3  4 0 0)

     celldm(1)=  13.942539  celldm(2)=   0.000000  celldm(3)=   0.000000
     celldm(4)=   0.000000  celldm(5)=   0.000000  celldm(6)=   0.000000

     crystal axes: (cart. coord. in units of alat)
               a(1) = (   1.000000   0.000000   0.000000 )
               a(2) = (   0.000000   2.309401   0.000000 )
               a(3) = (   0.000000   0.000000   3.388418 )

     reciprocal axes: (cart. coord. in units 2 pi/alat)
               b(1) = (  1.000000  0.000000  0.000000 )
               b(2) = (  0.000000  0.433013  0.000000 )
               b(3) = (  0.000000  0.000000  0.295123 )

     PseudoPot. # 1 for Cu read from file:
     /home/549/hxw549/Short/pseudopotentials/Cu.pbe-n-van_ak.UPF
     MD5 check sum: 601f7c30f7467666bec936e0661ce3e1
     Pseudo is Ultrasoft + core correction, Zval = 11.0
     Generated by new atomic code, or converted to UPF format
     Using radial grid of  867 points,  6 beta functions with:
                l(1) =   0
                l(2) =   0
                l(3) =   1
                l(4) =   1
                l(5) =   2
                l(6) =   2
     Q(r) pseudized with  8 coefficients,  rinner =    1.400   1.400   1.400
                                                       1.400   1.400

     PseudoPot. # 2 for C  read from file:
     /home/549/hxw549/Short/pseudopotentials/C.star1s-pbe-mt_gipaw.UPF
     MD5 check sum: ef0cb3dee31bd9e4ba2a832a2c716264
     Pseudo is Norm-conserving, Zval =  5.0
     Generated by new atomic code, or converted to UPF format
     Using radial grid of 1073 points,  1 beta functions with:
                l(1) =   0

     PseudoPot. # 3 for C  read from file:
     /home/549/hxw549/Short/pseudopotentials/C.pbe-mt_gipaw.UPF
     MD5 check sum: 5ac2f21f2c440b14befe521540822c15
     Pseudo is Norm-conserving, Zval =  4.0
     Generated by new atomic code, or converted to UPF format
     Using radial grid of 1073 points,  1 beta functions with:
                l(1) =   0

     PseudoPot. # 4 for H  read from file:
     /home/549/hxw549/Short/pseudopotentials/H.pbe-van_ak.UPF
     MD5 check sum: 077eb6d537518a38cb46c6de387227b7
     Pseudo is Ultrasoft, Zval =  1.0
     Generated by new atomic code, or converted to UPF format
     Using radial grid of  615 points,  1 beta functions with:
                l(1) =   0
     Q(r) pseudized with  8 coefficients,  rinner =    0.800

     atomic species   valence    mass     pseudopotential
        Cu            11.00    63.54600     Cu( 1.00)
        C_h            5.00    12.01070     C ( 1.00)
        C              4.00    12.01070     C ( 1.00)
        H              1.00     1.00783     H ( 1.00)

     No symmetry found

   Cartesian axes

     site n.     atom                  positions (alat units)
         1           Cu  tau(   1) = (   0.0005942  -0.0038463   0.9930871  )
         2           Cu  tau(   2) = (   0.2511630   0.2244508   0.9942371  )
         3           Cu  tau(   3) = (   0.5007811  -0.0044706   0.9933156  )
         4           Cu  tau(   4) = (   0.7505207   0.2245418   0.9940835  )
         5           Cu  tau(   5) = (   0.0008481   0.4562049   0.9956409  )
         6           Cu  tau(   6) = (   0.2506786   0.6900795   0.9976618  )
         7           Cu  tau(   7) = (   0.5008632   0.4564016   0.9956302  )
         8           Cu  tau(   8) = (   0.7509606   0.6899328   0.9972468  )
         9           Cu  tau(   9) = (   0.0010626   0.9239011   0.9978053  )
        10           Cu  tau(  10) = (   0.2506086   1.1579934   0.9970288  )
        11           Cu  tau(  11) = (   0.5007037   0.9239065   0.9982690  )
        12           Cu  tau(  12) = (   0.7509822   1.1580641   0.9967192  )
        13           Cu  tau(  13) = (   0.0007618   1.3923352   0.9946266  )
        14           Cu  tau(  14) = (   0.2511320   1.6244682   0.9931181  )
        15           Cu  tau(  15) = (   0.5008944   1.3922557   0.9946286  )
        16           Cu  tau(  16) = (   0.7504689   1.6245618   0.9928784  )
        17           Cu  tau(  17) = (   0.0006403   1.8529676   0.9923519  )
        18           Cu  tau(  18) = (   0.2502663   2.0793525   0.9921530  )
        19           Cu  tau(  19) = (   0.5006837   1.8534625   0.9923857  )
        20           Cu  tau(  20) = (   0.7509333   2.0791621   0.9926036  )
        21           Cu  tau(  21) = (   0.0008436   0.2226903   1.2439799  )
        22           Cu  tau(  22) = (   0.2508004  -0.0053476   1.2453895  )
        23           Cu  tau(  23) = (   0.5008992   0.2231066   1.2437588  )
        24           Cu  tau(  24) = (   0.7506478  -0.0047299   1.2459640  )
        25           Cu  tau(  25) = (   0.0008489   0.6881471   1.2427947  )
        26           Cu  tau(  26) = (   0.2509174   0.4537933   1.2424126  )
        27           Cu  tau(  27) = (   0.5014493   0.6879078   1.2426873  )
        28           Cu  tau(  28) = (   0.7510800   0.4540268   1.2428095  )
        29           Cu  tau(  29) = (   0.0008866   1.1607300   1.2418123  )
        30           Cu  tau(  30) = (   0.2504606   0.9243917   1.2433168  )
        31           Cu  tau(  31) = (   0.5012960   1.1608479   1.2417939  )
        32           Cu  tau(  32) = (   0.7514211   0.9242728   1.2422531  )
        33           Cu  tau(  33) = (   0.0008238   1.6260289   1.2427661  )
        34           Cu  tau(  34) = (   0.2508668   1.3949963   1.2411065  )
        35           Cu  tau(  35) = (   0.5008273   1.6259522   1.2425316  )
        36           Cu  tau(  36) = (   0.7510233   1.3949321   1.2413170  )
        37           Cu  tau(  37) = (   0.0002797   2.0789654   1.2472520  )
        38           Cu  tau(  38) = (   0.2506780   1.8539880   1.2445803  )
        39           Cu  tau(  39) = (   0.5009511   2.0786742   1.2465668  )
        40           Cu  tau(  40) = (   0.7506849   1.8531565   1.2454973  )
        41           Cu  tau(  41) = (   0.0004902  -0.0048640   1.5012899  )
        42           Cu  tau(  42) = (   0.2509479   0.2213919   1.4948764  )
        43           Cu  tau(  43) = (   0.5008633  -0.0055096   1.4998236  )
        44           Cu  tau(  44) = (   0.7507049   0.2224039   1.4962002  )
        45           Cu  tau(  45) = (   0.0008858   0.4521035   1.4909719  )
        46           Cu  tau(  46) = (   0.2508978   0.6868072   1.4865842  )
        47           Cu  tau(  47) = (   0.5015522   0.4518694   1.4903810  )
        48           Cu  tau(  48) = (   0.7514726   0.6871259   1.4876615  )
        49           Cu  tau(  49) = (   0.0002500   0.9250368   1.4863019  )
        50           Cu  tau(  50) = (   0.2505897   1.1628075   1.4859838  )
        51           Cu  tau(  51) = (   0.5009744   0.9248361   1.4856989  )
        52           Cu  tau(  52) = (   0.7515423   1.1627813   1.4863707  )
        53           Cu  tau(  53) = (   0.0008363   1.3971227   1.4898823  )
        54           Cu  tau(  54) = (   0.2508389   1.6273910   1.4937434  )
        55           Cu  tau(  55) = (   0.5014752   1.3979066   1.4886943  )
        56           Cu  tau(  56) = (   0.7508714   1.6259248   1.4956944  )
        57           Cu  tau(  57) = (   0.0004376   1.8527965   1.5010687  )
        58           Cu  tau(  58) = (   0.2504027   2.0785939   1.5029371  )
        59           Cu  tau(  59) = (   0.5009858   1.8533152   1.5000881  )
        60           Cu  tau(  60) = (   0.7509970   2.0786638   1.5031194  )
[...]
        92           Cu  tau(  92) = (   0.7546301   1.1577145   1.9787635  )
        93           Cu  tau(  93) = (  -0.0008328   1.3888834   1.9925616  )
        94           Cu  tau(  94) = (   0.2520653   1.6166694   2.0024762  )
        95           Cu  tau(  95) = (   0.5010134   1.3858075   1.9896408  )
        96           Cu  tau(  96) = (   0.7496504   1.6159218   2.0035855  )
        97           Cu  tau(  97) = (   0.0005533   1.8454381   2.0118807  )
        98           Cu  tau(  98) = (   0.2497981   2.0783156   2.0123703  )
        99           Cu  tau(  99) = (   0.5015435   1.8482404   2.0091037  )
       100           Cu  tau( 100) = (   0.7518512   2.0787787   2.0132458  )
       101           C   tau( 101) = (  -0.0003126   0.1006325   2.4740383  )
       102           C   tau( 102) = (  -0.0003775   0.2920325   2.5081418  )
       103           C   tau( 103) = (   0.1663980   0.0036286   2.4620667  )
       104           C   tau( 104) = (   0.1663498   0.3875619   2.5287554  )
       105           C   tau( 105) = (   0.3329568   0.1006649   2.4741495  )
       106           C   tau( 106) = (   0.3329888   0.2921582   2.5077789  )
       107           C_h tau( 107) = (   0.4997204   0.0036301   2.4626464  )
       108           C   tau( 108) = (   0.4994819   0.3878807   2.5283181  )
       109           C   tau( 109) = (   0.6664286   0.1006943   2.4742667  )
       110           C   tau( 110) = (   0.6662607   0.2923989   2.5068094  )
       111           C   tau( 111) = (   0.8330134   0.0037573   2.4607979  )
       112           C   tau( 112) = (   0.8329291   0.3878381   2.5270081  )
       113           C   tau( 113) = (  -0.0004818   0.6734409   2.5851986  )
       114           C   tau( 114) = (  -0.0002469   0.8665147   2.6029464  )
       115           C   tau( 115) = (   0.1665021   0.5772827   2.5711435  )
       116           C   tau( 116) = (   0.1664542   0.9638089   2.6091331  )
       117           C   tau( 117) = (   0.3326642   0.6726237   2.5966217  )
       118           C   tau( 118) = (   0.3324550   0.8658708   2.6237839  )
       119           C   tau( 119) = (   0.4993534   0.5773360   2.5728227  )
       120           C   tau( 120) = (   0.4998971   0.9649202   2.6219659  )
       121           C   tau( 121) = (   0.6661760   0.6737708   2.5875107  )
       122           C   tau( 122) = (   0.6665804   0.8667296   2.6107608  )
       123           C   tau( 123) = (   0.8328401   0.5779267   2.5667895  )
       124           C   tau( 124) = (   0.8330747   0.9640677   2.6024886  )
[...]
       126           C   tau( 126) = (  -0.0001253   1.4422912   2.5224834  )
       127           C   tau( 127) = (   0.1666321   1.1566227   2.5840568  )
       128           C   tau( 128) = (   0.1665763   1.5380253   2.5039308  )
       129           C   tau( 129) = (   0.3332648   1.2530529   2.5690923  )
       130           C   tau( 130) = (   0.3332880   1.4426743   2.5261218  )
       131           C   tau( 131) = (   0.4999030   1.1576825   2.5919202  )
       132           C   tau( 132) = (   0.4998036   1.5383355   2.5061839  )
       133           C   tau( 133) = (   0.6663241   1.2529384   2.5671493  )
       134           C   tau( 134) = (   0.6664542   1.4427271   2.5254651  )
       135           C   tau( 135) = (   0.8332378   1.1569421   2.5820745  )
       136           C   tau( 136) = (   0.8331711   1.5381531   2.5038020  )
       137           C   tau( 137) = (  -0.0001042   1.8267606   2.4581975  )
       138           C   tau( 138) = (  -0.0001516   2.0211056   2.4468364  )
       139           C   tau( 139) = (   0.1666301   1.7298093   2.4723584  )
       140           C   tau( 140) = (   0.1664718   2.1188427   2.4491755  )
       141           C   tau( 141) = (   0.3331974   1.8269638   2.4626428  )
       142           C   tau( 142) = (   0.3331985   2.0211166   2.4504279  )
       143           C   tau( 143) = (   0.4998554   1.7299413   2.4736692  )
       144           C   tau( 144) = (   0.4997837   2.1189131   2.4508552  )
       145           C   tau( 145) = (   0.6664794   1.8269319   2.4609715  )
       146           C   tau( 146) = (   0.6664253   2.0211530   2.4491533  )
       147           C   tau( 147) = (   0.8330798   1.7297223   2.4708304  )
       148           C   tau( 148) = (   0.8330937   2.1189094   2.4468884  )
       149           H   tau( 149) = (   0.4446619   0.9035800   2.3768416  )
       150           C   tau( 150) = (   0.3968788   0.8859315   2.2396702  )
       151           H   tau( 151) = (   0.5360793   0.8733752   2.1781091  )
       152           H   tau( 152) = (   0.3176552   0.7592170   2.2348797  )
       153           H   tau( 153) = (   0.3152415   1.0076446   2.2117415  )

     number of k points=     6  gaussian smearing, width (Ry)=  0.1000
                       cart. coord. in units 2pi/alat
        k(    1) = (   0.0000000   0.0000000   0.0000000), wk =   0.2500000
        k(    2) = (   0.0000000  -0.2165064   0.0000000), wk =   0.2500000
        k(    3) = (   0.2500000   0.0000000   0.0000000), wk =   0.5000000
        k(    4) = (   0.2500000  -0.2165064   0.0000000), wk =   0.5000000
        k(    5) = (  -0.5000000   0.0000000   0.0000000), wk =   0.2500000
        k(    6) = (  -0.5000000  -0.2165064   0.0000000), wk =   0.2500000

     Largest allocated arrays     est. size (Mb)     dimensions
     Largest temporary arrays     est. size (Mb)     dimensions

     Initial potential from superposition of free atoms
     Check: negative starting charge=   -0.001557

     starting charge 1274.31748, renormalised to 1300.00000

     negative rho (up, down):  1.588E-03 0.000E+00
     Starting wfc are 1296 randomized atomic wfcs

     Self-consistent Calculation

     iteration #  1     ecut=    80.00 Ry     beta=0.70
     Davidson diagonalization with overlap
     c_bands:  4 eigenvalues not converged
     c_bands:  4 eigenvalues not converged
     c_bands:  3 eigenvalues not converged
     c_bands:  5 eigenvalues not converged
     c_bands:  5 eigenvalues not converged
     ethr =  1.00E-04,  avg # of iterations = 40.8

     negative rho (up, down):  2.417E+01 0.000E+00

     total energy              =  -10111.68536172 Ry
     Harris-Foulkes estimate   =  -18289.45501633 Ry
     estimated scf accuracy    <  211517.33974572 Ry

     iteration #  2     ecut=    80.00 Ry     beta=0.70
     Davidson diagonalization with overlap
     ethr =  1.00E-02,  avg # of iterations = 14.2

[...]

     iteration # 38     ecut=    80.00 Ry     beta=0.70
     Davidson diagonalization with overlap
     c_bands:  1 eigenvalues not converged
     ethr =  1.92E-09,  avg # of iterations = 11.3

[...]

     total energy              =  -12723.07202008 Ry
     Harris-Foulkes estimate   =  -12723.07202010 Ry
     estimated scf accuracy    <       0.00000001 Ry

     iteration # 45     ecut=    80.00 Ry     beta=0.70
     Davidson diagonalization with overlap
     ethr =  1.13E-12,  avg # of iterations =  3.0

     negative rho (up, down):  1.666E-03 0.000E+00

     End of self-consistent calculation

          k = 0.0000 0.0000 0.0000 (256287 PWs)   bands (ev):

   -16.9146 -15.8180 -15.6791 -15.0374 -14.6685 -14.4021 -14.2985 -13.8462
   -13.7740 -13.7300 -13.7140 -13.1046 -12.9614 -12.7642 -12.7502 -12.7284
   -12.6997 -11.3363 -11.1897 -11.1537 -11.0357 -10.9866 -10.7583  -9.9708
    -9.4555  -9.4343  -9.2749  -9.2127  -8.5933  -8.4003  -8.2929  -8.1960
    -7.7223  -7.5144  -7.4577  -7.2867  -7.2104  -7.1978  -7.1672  -7.1176
    -6.0278  -6.0258  -5.9059  -5.7874  -5.6822  -5.6252  -5.5761  -5.5570
    -5.5433  -5.3753  -5.3718  -4.8474  -4.7214  -4.5544  -4.5372  -4.4037
    -4.3702  -4.2927  -4.2548  -4.1474  -4.0310  -3.8884  -3.8735  -3.8267
    -3.7227  -3.6251  -3.5440  -3.3285  -3.3230  -3.3054  -3.2845  -3.2717
    -3.2509  -3.1233  -3.1026  -3.0940  -2.9159  -2.9024  -2.8993  -2.8929
    -2.8894  -2.8735  -2.8603  -2.7037  -2.6672  -2.6087  -2.5773  -2.5669
    -2.4994  -2.4639  -2.4450  -2.4149  -2.3947  -2.3537  -2.2536  -2.1865
    -2.1812  -2.1797  -2.1606  -2.0885  -2.0851  -2.0602  -2.0579  -2.0549
    -2.0526  -2.0295  -1.9279  -1.9275  -1.9037  -1.9024  -1.8865  -1.7742
    -1.7544  -1.6810  -1.6416  -1.6377  -1.6355  -1.6310  -1.6281  -1.6219
    -1.6149  -1.5963  -1.5835  -1.5550  -1.5532  -1.5439  -1.5285  -1.5178
    -1.5064  -1.4805  -1.4734  -1.4707  -1.4663  -1.4571  -1.4467  -1.4330
    -1.4290  -1.4184  -1.4179  -1.3750  -1.3690  -1.3554  -1.3161  -1.2840
    -1.2557  -1.2215  -1.2035  -1.1968  -1.1904  -1.1881  -1.1790  -1.1766
    -1.1587  -1.1462  -1.1208  -1.1141  -1.0962  -1.0944  -1.0766  -1.0549
    -0.9784  -0.9647  -0.9620  -0.9559  -0.9513  -0.9448  -0.9412  -0.9401
    -0.9361  -0.9329  -0.9271  -0.9264  -0.9220  -0.9030  -0.8961  -0.8927
    -0.8907  -0.8878  -0.8541  -0.8486  -0.8480  -0.8256  -0.8249  -0.8161
    -0.8045  -0.7971  -0.7836  -0.7723  -0.7706  -0.7664  -0.7628  -0.7574
    -0.7537  -0.7534  -0.7517  -0.7495  -0.7462  -0.7440  -0.7418  -0.7394
    -0.7362  -0.7313  -0.7300  -0.6620  -0.6036  -0.5985  -0.5971  -0.5963
    -0.5915  -0.5902  -0.5556  -0.5459  -0.5439  -0.5411  -0.5406  -0.5307
    -0.5262  -0.5212  -0.5134  -0.5003  -0.4969  -0.4787  -0.4695  -0.4679
    -0.4630  -0.4594  -0.4585  -0.4561  -0.4467  -0.4437  -0.4388  -0.3938
    -0.3914  -0.3884  -0.3593  -0.3553  -0.3529  -0.3309  -0.3281  -0.3251
    -0.3242  -0.3211  -0.3196  -0.3169  -0.3167  -0.3105  -0.3097  -0.3077
    -0.3054  -0.3028  -0.3021  -0.2936  -0.2855  -0.2821  -0.2631  -0.2483
    -0.2417  -0.2400  -0.2203  -0.2178  -0.2121  -0.1976  -0.1948  -0.1908
    -0.1857  -0.1721  -0.1718  -0.1690  -0.1620  -0.1593  -0.1525  -0.1506
    -0.1397  -0.1386  -0.1336  -0.1309  -0.1299  -0.1203  -0.1168  -0.1143
    -0.1081  -0.0948  -0.0946  -0.0916  -0.0899  -0.0880  -0.0864  -0.0651
    -0.0470  -0.0412  -0.0371  -0.0297  -0.0270   0.0033   0.0057   0.0199
     0.0217   0.0252   0.0283   0.0381   0.0400   0.0462   0.0530   0.0558
     0.0595   0.0690   0.0708   0.0756   0.0932   0.0966   0.1038   0.1050
     0.1108   0.1174   0.1189   0.1274   0.1320   0.1356   0.1357   0.1499
     0.1503   0.1535   0.1557   0.1597   0.1703   0.1722   0.1843   0.1881
     0.1913   0.1942   0.2042   0.2097   0.2238   0.2300   0.2509   0.2549
     0.2589   0.2607   0.2617   0.2688   0.2802   0.2986   0.3006   0.3072
     0.3168   0.3235   0.3469   0.3562   0.3638   0.3776   0.3782   0.3870
     0.3942   0.3995   0.4005   0.4206   0.4223   0.4302   0.4418   0.4537
     0.4565   0.4641   0.4658   0.4687   0.4748   0.4826   0.4827   0.4921
     0.5052   0.5107   0.5157   0.5198   0.5324   0.5345   0.5512   0.5569
     0.5580   0.5608   0.5706   0.5747   0.5779   0.5857   0.5896   0.5927
     0.5995   0.6096   0.6180   0.6213   0.6250   0.6295   0.6412   0.6416
     0.6453   0.6466   0.6477   0.6504   0.6537   0.6578   0.6585   0.6660
     0.6731   0.6756   0.6874   0.6901   0.6925   0.7025   0.7096   0.7200
     0.7268   0.7287   0.7377   0.7423   0.7475   0.7508   0.7549   0.7622
     0.7662   0.7668   0.7696   0.7704   0.7719   0.7749   0.7785   0.7864
     0.7881   0.7905   0.8000   0.8046   0.8108   0.8145   0.8173   0.8201
     0.8284   0.8315   0.8318   0.8396   0.8476   0.8488   0.8555   0.8569
     0.8605   0.8643   0.8837   0.8893   0.8936   0.9012   0.9166   0.9191
     0.9374   0.9403   0.9417   0.9463   0.9505   0.9531   0.9582   0.9608
     0.9694   0.9721   0.9773   0.9804   0.9847   0.9849   0.9968   1.0028
     1.0083   1.0118   1.0122   1.0170   1.0213   1.0252   1.0271   1.0291
     1.0365   1.0489   1.0687   1.0716   1.0763   1.0781   1.0870   1.0896
[...]
     3.9633   3.9939   4.0179   4.0450   4.0817   4.0884   4.0923   4.0935
     4.1085   4.1889   4.2185   4.2408   4.3533   4.5507   4.6809   4.8446
     5.0310   5.1552   5.1703   5.2161   5.2546   5.3254   5.3797   5.4018
     5.6076   5.6251   5.8301   5.8428   6.0044   6.0071   6.2193   6.2278
     6.3778   6.4249   6.4614   6.4866   6.5220   6.5817   6.6095   6.6372
     6.6834   6.7132   6.8106   6.8734   6.9132   6.9448   6.9682   6.9791
     7.0072   7.0573   7.0745   7.1226   7.1682   7.2099   7.3804   7.4394
     7.4529   7.5152   7.5434   7.6936   7.7180   7.7670   7.8412   8.0108
     8.0392   8.0734   8.1100   8.1404   8.1825   8.2021   8.3021   8.3269
     8.3487   8.3665   8.3903   8.4190   8.4312   8.5336   8.5633   8.6008
     8.6114   8.6154   8.6393   8.6756   8.7401   8.7523   8.7643   8.8290
     8.8564   8.8673   8.9044   8.9612   9.0193   9.0424   9.0553   9.0669
     9.1539   9.1739   9.2734   9.3828   9.4100   9.4238   9.4693   9.5035
     9.5344   9.5884   9.6494   9.6782   9.6870   9.9181  10.0187  10.0289
    10.0695  10.1274  10.1288  10.1502

[...]

          k = 0.2500-0.2165 0.0000 (256316 PWs)   bands (ev):

[...]

          k =-0.5000 0.0000 0.0000 (256496 PWs)   bands (ev):

[...]

          k =-0.5000-0.2165 0.0000 (256328 PWs)   bands (ev):

   -16.8056 -15.5800 -15.4167 -15.3609 -14.9979 -14.8259 -14.7458 -14.7032
   -13.7106 -13.4735 -13.3343 -13.2994 -12.3161 -12.0668 -11.6349 -11.5891
   -11.5658 -11.4362 -11.3662 -11.2576 -11.1746 -11.1466 -11.0227 -11.0005
   -10.7470  -9.6991  -9.6751  -9.3959  -9.3441  -8.9360  -8.5726  -8.4806
    -8.4249  -7.9748  -7.9395  -7.7080  -7.6820  -6.2722  -5.9880  -5.8611
    -5.6746  -5.5497  -5.3398  -5.0847  -5.0763  -5.0656  -5.0618  -5.0615
    -4.9678  -4.9642  -4.8171  -4.5683  -4.5596  -4.5119  -4.3057  -4.1750
    -4.1206  -4.1014  -4.0840  -4.0678  -4.0576  -4.0352  -3.9965  -3.9844
    -3.8758  -3.8595  -3.8556  -3.8235  -3.7654  -3.6500  -3.6033  -3.5937
    -3.4710  -3.4383  -3.4181  -3.3894  -3.3195  -3.3111  -3.2811  -3.2011
    -3.1452  -3.1318  -3.1184  -3.0876  -2.7351  -2.6888  -2.6433  -2.5352
    -2.4933  -2.4771  -2.4754  -2.4741  -2.4719  -2.4601  -2.4295  -2.3851
    -2.3073  -2.2391  -2.1650  -2.1010  -1.9738  -1.9727  -1.9713  -1.9694
    -1.9630  -1.9533  -1.9420  -1.8788  -1.8483  -1.7986  -1.7539  -1.7125
    -1.7025  -1.7024  -1.6949  -1.6884  -1.5010  -1.4947  -1.4919  -1.4848
    -1.4191  -1.4064  -1.4038  -1.4010  -1.3977  -1.3946  -1.3790  -1.3745
    -1.3434  -1.3399  -1.3286  -1.3268  -1.3119  -1.3054  -1.2927  -1.2850
    -1.2810  -1.2801  -1.2765  -1.2743  -1.2722  -1.2603  -1.2590  -1.2576
    -1.2541  -1.2139  -1.2117  -1.1976  -1.1896  -1.1818  -1.1730  -1.1650
    -1.1166  -1.1147  -1.1092  -1.1073  -1.0942  -1.0886  -1.0856  -1.0808
    -1.0695  -1.0632  -1.0526  -1.0499  -1.0468  -1.0438  -1.0417  -1.0333
    -1.0289  -1.0240  -1.0228  -1.0153  -1.0078  -0.9985  -0.9927  -0.9839
    -0.9800  -0.9746  -0.9702  -0.9657  -0.9639  -0.9445  -0.9421  -0.9352
    -0.9296  -0.9280  -0.9269  -0.9229  -0.9200  -0.8333  -0.7909  -0.7823
    -0.7726  -0.7710  -0.7645  -0.7633  -0.7618  -0.7610  -0.7562  -0.7501
    -0.6946  -0.6882  -0.6832  -0.6813  -0.6744  -0.6740  -0.6607  -0.6589
    -0.6566  -0.6554  -0.6514  -0.6500  -0.6121  -0.6064  -0.6043  -0.6019
    -0.6005  -0.5923  -0.5845  -0.5781  -0.5745  -0.5700  -0.5298  -0.5274
    -0.4880  -0.4748  -0.4665  -0.4595  -0.4371  -0.4342  -0.4327  -0.4320
    -0.4078  -0.4067  -0.3989  -0.3973  -0.3578  -0.3566  -0.3527  -0.3511
    -0.3375  -0.3362  -0.3251  -0.3213  -0.3079  -0.3005  -0.2984  -0.2942
    -0.2919  -0.2803  -0.2793  -0.2753  -0.2259  -0.2219  -0.2133  -0.2046
    -0.2022  -0.2001  -0.1786  -0.1744  -0.1610  -0.1599  -0.1544  -0.1530
    -0.1528  -0.1497  -0.1446  -0.1359  -0.1198  -0.0915  -0.0870  -0.0835
    -0.0785  -0.0775  -0.0724  -0.0702  -0.0654  -0.0561  -0.0540  -0.0520
    -0.0502  -0.0332  -0.0323  -0.0312  -0.0262  -0.0197  -0.0174  -0.0114
    -0.0055   0.0029   0.0046   0.0109   0.0134   0.0292   0.0400   0.0621
     0.0683   0.0688   0.0724   0.1048   0.1167   0.1262   0.1357   0.1418
     0.1419   0.1424   0.1464   0.1543   0.1606   0.1661   0.1729   0.1761
     0.1789   0.1817   0.1851   0.1889   0.1906   0.1956   0.1978   0.1989
     0.2029   0.2040   0.2083   0.2095   0.2115   0.2127   0.2144   0.2170
     0.2237   0.2375   0.2395   0.2478   0.2532   0.2585   0.2594   0.2623
     0.2665   0.2792   0.2817   0.2825   0.2938   0.2975   0.3072   0.3224
     0.3275   0.3340   0.3398   0.3417   0.3473   0.3634   0.3794   0.3888
     0.4003   0.4044   0.4052   0.4367   0.4385   0.4457   0.4505   0.4563
     0.4591   0.4698   0.4839   0.4842   0.4851   0.4875   0.4960   0.4984
     0.5024   0.5054   0.5157   0.5202   0.5340   0.5417   0.5460   0.5473
     0.5517   0.5575   0.5590   0.5605   0.5609   0.5623   0.5634   0.5664
     0.5726   0.5828   0.5877   0.5884   0.5912   0.5951   0.5994   0.6029
     0.6199   0.6221   0.6298   0.6388   0.6407   0.6493   0.6501   0.6554
     0.6566   0.6611   0.6660   0.6693   0.6749   0.6757   0.6769   0.6786
     0.7023   0.7057   0.7062   0.7089   0.7096   0.7117   0.7131   0.7168
     0.7173   0.7242   0.7288   0.7421   0.7553   0.7587   0.7644   0.7672
     0.7678   0.7722   0.7790   0.7856   0.7862   0.7905   0.7923   0.7956
     0.8123   0.8148   0.8167   0.8197   0.8217   0.8219   0.8271   0.8300
     0.8350   0.8376   0.8415   0.8477   0.8529   0.8609   0.8633   0.8659
     0.8732   0.8938   0.8996   0.9046   0.9078   0.9111   0.9233   0.9364
     0.9381   0.9402   0.9496   0.9540   0.9574   0.9596   0.9605   0.9662
     0.9930   1.0011   1.0110   1.0144   1.0250   1.0322   1.0325   1.0377
     1.0470   1.0600   1.0621   1.0687   1.0712   1.0736   1.0753   1.0784
[...]
     4.2906   4.3099   4.3122   4.3156   4.3798   4.5526   4.5651   4.6103
     4.6552   4.7431   4.7520   4.7751   4.7926   4.9736   5.0825   5.1557
     5.1669   5.1874   5.1971   5.2092   5.2258   5.2347   5.2447   5.2648
     5.2654   5.2995   5.3374   5.3763   5.4235   5.4348   5.5082   5.5224
     5.6145   5.6218   5.7405   5.7754   5.7856   5.7914   5.8127   5.8207
     5.8304   5.9706   6.0139   6.0489   6.7044   6.7241   6.9874   7.0253
     7.0440   7.0542   7.0669   7.0891   7.1001   7.1155   7.1350   7.1497
     7.1773   7.1887   7.2495   7.2595   7.3516   7.3908   7.4140   7.4602
     7.4799   7.5055   7.5406   7.6590   7.7942   7.8886   7.8975   7.9408
     8.0602   8.1238   8.1574   8.1913   8.2101   8.2312   8.2503   8.2805
     8.3258   8.4110   8.4195   8.5152   8.8775   8.8864   8.8965   8.8977
     8.9331   8.9567   8.9719   8.9744   9.0065   9.0349   9.0621   9.0754
     9.1207   9.1241   9.1749   9.1855   9.2778   9.3013   9.3229   9.3461
     9.3798   9.4006   9.4228   9.4280   9.4430   9.4807   9.5202   9.6111
     9.7037   9.7848   9.9436   9.9535

     the Fermi energy is     3.4029 ev

!    total energy              =  -12723.07202010 Ry
     Harris-Foulkes estimate   =  -12723.07202009 Ry
     estimated scf accuracy    <          8.2E-09 Ry

     The total energy is the sum of the following terms:

     one-electron contribution =  -99704.34610033 Ry
     hartree contribution      =   51221.73963496 Ry
     xc contribution           =   -4452.96950009 Ry
     ewald contribution        =   40218.68347647 Ry
     Dispersion Correction     =      -2.81045542 Ry
     smearing contrib. (-TS)   =      -3.36907568 Ry

     convergence has been achieved in  45 iterations

     Writing output data file gc.save

     General routines

     Parallel routines

   This run was terminated on:  13: 7: 8   1May2017

   JOB DONE.