     Program PWSCF v.5.4.0 starts on 20Apr2017 at 12: 2:45

     Current dimensions of program PWSCF are:
     Max number of different atomic species (ntypx) = 10
     Max number of k-points (npk) =  40000
     Max angular momentum in pseudopotentials (lmaxx) =  3

     Parameters for Dispersion Correction:
       atom      VdW radius       C_6

        Cu         2.952        374.666
        C_h        2.744         60.710
        C          2.744         60.710

     bravais-lattice index     =            0
     lattice parameter (alat)  =      13.9425  a.u.
     unit-cell volume          =   21209.0878 (a.u.)^3
     number of atoms/cell      =          156
     number of atomic types    =            3
     number of electrons       =      1380.00
     number of Kohn-Sham states=          828
     kinetic-energy cutoff     =      80.0000  Ry
     charge density cutoff     =     320.0000  Ry
     convergence threshold     =      1.0E-08
     mixing beta               =       0.7000
     number of iterations used =            8  local-TF  mixing
     Exchange-correlation      =  SLA  PW   PBX  PBC ( 1  4  3  4 0 0)

     celldm(1)=  13.942539  celldm(2)=   0.000000  celldm(3)=   0.000000
     celldm(4)=   0.000000  celldm(5)=   0.000000  celldm(6)=   0.000000

     crystal axes: (cart. coord. in units of alat)
               a(1) = (   1.000000   0.000000   0.000000 )
               a(2) = (   0.000000   2.309401   0.000000 )
               a(3) = (   0.000000   0.000000   3.388418 )

     reciprocal axes: (cart. coord. in units 2 pi/alat)
               b(1) = (  1.000000  0.000000  0.000000 )
               b(2) = (  0.000000  0.433013  0.000000 )
               b(3) = (  0.000000  0.000000  0.295123 )

     PseudoPot. # 1 for Cu read from file:
     /home/549/hxw549/Short/pseudopotentials/Cu.pbe-n-van_ak.UPF
     MD5 check sum: 601f7c30f7467666bec936e0661ce3e1
     Pseudo is Ultrasoft + core correction, Zval = 11.0
     Generated by new atomic code, or converted to UPF format
     Using radial grid of  867 points,  6 beta functions with:
                l(1) =   0
                l(2) =   0
                l(3) =   1
                l(4) =   1
                l(5) =   2
                l(6) =   2
     Q(r) pseudized with  8 coefficients,  rinner =    1.400   1.400   1.400
                                                       1.400   1.400

     PseudoPot. # 2 for C  read from file:
     /home/549/hxw549/Short/pseudopotentials/C.star1s-pbe-mt_gipaw.UPF
     MD5 check sum: ef0cb3dee31bd9e4ba2a832a2c716264
     Pseudo is Norm-conserving, Zval =  5.0
     Generated by new atomic code, or converted to UPF format
     Using radial grid of 1073 points,  1 beta functions with:
                l(1) =   0

     PseudoPot. # 3 for C  read from file:
     /home/549/hxw549/Short/pseudopotentials/C.pbe-mt_gipaw.UPF
     MD5 check sum: 5ac2f21f2c440b14befe521540822c15
     Pseudo is Norm-conserving, Zval =  4.0
     Generated by new atomic code, or converted to UPF format
     Using radial grid of 1073 points,  1 beta functions with:
                l(1) =   0

     atomic species   valence    mass     pseudopotential
        Cu            11.00    63.54600     Cu( 1.00)
        C_h            5.00    12.01070     C ( 1.00)
        C              4.00    12.01070     C ( 1.00)

     No symmetry found

   Cartesian axes

     site n.     atom                  positions (alat units)
         1           Cu  tau(   1) = (  -0.0000549   0.0038944   0.8895039  )
         2           Cu  tau(   2) = (   0.2498561   0.2364069   0.8931545  )
         3           Cu  tau(   3) = (   0.4999834   0.0040272   0.8891076  )
         4           Cu  tau(   4) = (   0.7500655   0.2365774   0.8930538  )
         5           Cu  tau(   5) = (  -0.0000562   0.4680485   0.8986857  )
         6           Cu  tau(   6) = (   0.2499204   0.6979601   0.9023997  )
         7           Cu  tau(   7) = (   0.4999770   0.4680600   0.8986438  )
         8           Cu  tau(   8) = (   0.7499919   0.6979170   0.9024188  )
         9           Cu  tau(   9) = (  -0.0000103   0.9272203   0.9035556  )
        10           Cu  tau(  10) = (   0.2499589   1.1564729   0.9037066  )
        11           Cu  tau(  11) = (   0.4999145   0.9271629   0.9034395  )
        12           Cu  tau(  12) = (   0.7499463   1.1564243   0.9036188  )
        13           Cu  tau(  13) = (  -0.0001139   1.3860246   0.9027183  )
        14           Cu  tau(  14) = (   0.2498801   1.6163418   0.8986746  )
        15           Cu  tau(  15) = (   0.5000280   1.3859803   0.9024834  )
        16           Cu  tau(  16) = (   0.7500312   1.6160597   0.8985479  )
        17           Cu  tau(  17) = (   0.0000423   1.8478793   0.8927838  )
        18           Cu  tau(  18) = (   0.2500275   2.0802463   0.8891797  )
        19           Cu  tau(  19) = (   0.4998824   1.8476458   0.8930400  )
        20           Cu  tau(  20) = (   0.7499023   2.0802466   0.8892023  )
        21           Cu  tau(  21) = (  -0.0000006   0.2314407   1.1418707  )
        22           Cu  tau(  22) = (   0.2498892   0.0016921   1.1383038  )
        23           Cu  tau(  23) = (   0.4999305   0.2313254   1.1417344  )
        24           Cu  tau(  24) = (   0.7500314   0.0017233   1.1384329  )
        25           Cu  tau(  25) = (  -0.0000709   0.6957747   1.1517252  )
        26           Cu  tau(  26) = (   0.2500244   0.4632860   1.1474081  )
        27           Cu  tau(  27) = (   0.4999876   0.6957836   1.1516684  )
        28           Cu  tau(  28) = (   0.7498984   0.4632432   1.1473117  )
        29           Cu  tau(  29) = (  -0.0000630   1.1568679   1.1543012  )
        30           Cu  tau(  30) = (   0.2499277   0.9268448   1.1543638  )
        31           Cu  tau(  31) = (   0.4999724   1.1568693   1.1541867  )
        32           Cu  tau(  32) = (   0.7500027   0.9269784   1.1543223  )
        33           Cu  tau(  33) = (  -0.0000082   1.6210599   1.1470060  )
        34           Cu  tau(  34) = (   0.2498596   1.3881448   1.1514236  )
        35           Cu  tau(  35) = (   0.4999174   1.6209561   1.1473344  )
        36           Cu  tau(  36) = (   0.7500490   1.3882920   1.1514093  )
        37           Cu  tau(  37) = (  -0.0001368   2.0821940   1.1384383  )
        38           Cu  tau(  38) = (   0.2500917   1.8528039   1.1417247  )
        39           Cu  tau(  39) = (   0.5000439   2.0824138   1.1382179  )
        40           Cu  tau(  40) = (   0.7498259   1.8528944   1.1417626  )
        41           Cu  tau(  41) = (  -0.0001378   0.0006883   1.3919862  )
        42           Cu  tau(  42) = (   0.2499845   0.2287190   1.3929011  )
        43           Cu  tau(  43) = (   0.5000483   0.0010692   1.3920855  )
        44           Cu  tau(  44) = (   0.7499379   0.2286829   1.3928022  )
        45           Cu  tau(  45) = (   0.0000062   0.4584630   1.3955340  )
        46           Cu  tau(  46) = (   0.2499963   0.6914661   1.3999671  )
        47           Cu  tau(  47) = (   0.4999185   0.4580848   1.3951344  )
        48           Cu  tau(  48) = (   0.7499533   0.6912121   1.4000695  )
        49           Cu  tau(  49) = (  -0.0000360   0.9252124   1.4043059  )
        50           Cu  tau(  50) = (   0.2499282   1.1590389   1.4037961  )
        51           Cu  tau(  51) = (   0.4999469   0.9251753   1.4044409  )
        52           Cu  tau(  52) = (   0.7500253   1.1590458   1.4042624  )
        53           Cu  tau(  53) = (  -0.0000739   1.3928481   1.3993409  )
        54           Cu  tau(  54) = (   0.2500691   1.6257625   1.3946926  )
        55           Cu  tau(  55) = (   0.4999884   1.3926344   1.3994945  )
        56           Cu  tau(  56) = (   0.7498314   1.6259215   1.3947318  )
        57           Cu  tau(  57) = (  -0.0000489   1.8554057   1.3928460  )
        58           Cu  tau(  58) = (   0.2499235   2.0832681   1.3919605  )
        59           Cu  tau(  59) = (   0.4999390   1.8556516   1.3922941  )
        60           Cu  tau(  60) = (   0.7499778   2.0829845   1.3920999  )
[...]
       100           Cu  tau( 100) = (   0.7504827   2.0840516   1.9026399  )
       101           Cu  tau( 101) = (   0.2536675   1.3944837   2.1357621  )
       102           Cu  tau( 102) = (   0.7464037   1.3942318   2.1363374  )
       103           Cu  tau( 103) = (  -0.0004629   1.1583394   2.1209052  )
       104           Cu  tau( 104) = (   0.2505084   0.9288428   2.1206185  )
       105           Cu  tau( 105) = (   0.5002771   1.1562048   2.1193217  )
       106           Cu  tau( 106) = (   0.7495267   0.9280549   2.1199382  )
       107           Cu  tau( 107) = (  -0.0000193   0.6948418   2.1354509  )
       108           Cu  tau( 108) = (   0.4998810   0.6882222   2.1355829  )
       109           C   tau( 109) = (   0.0000991   0.0901428   2.4031502  )
       110           C   tau( 110) = (   0.0000930   0.2823830   2.4180114  )
       111           C   tau( 111) = (   0.1666773  -0.0064510   2.3996578  )
       112           C   tau( 112) = (   0.1668787   0.3782408   2.4277671  )
       113           C   tau( 113) = (   0.3333089   0.0900211   2.4026227  )
       114           C   tau( 114) = (   0.3334028   0.2822316   2.4161361  )
       115           C_h tau( 115) = (   0.5000830  -0.0063283   2.3982863  )
       116           C   tau( 116) = (   0.5000767   0.3780919   2.4227795  )
       117           C   tau( 117) = (   0.6669041   0.0900346   2.4025061  )
       118           C   tau( 118) = (   0.6667952   0.2822435   2.4160878  )
       119           C   tau( 119) = (   0.8334865  -0.0064471   2.3995724  )
       120           C   tau( 120) = (   0.8332736   0.3782539   2.4277003  )
       121           C   tau( 121) = (   0.0000735   0.6670179   2.4604097  )
       122           C   tau( 122) = (   0.0001050   0.8588633   2.4907114  )
       123           C   tau( 123) = (   0.1672571   0.5698504   2.4498428  )
       124           C   tau( 124) = (   0.1665971   0.9552497   2.4963875  )
       125           C   tau( 125) = (   0.3330385   0.6665151   2.4637668  )
       126           C   tau( 126) = (   0.3335343   0.8585536   2.4894103  )
       127           C   tau( 127) = (   0.5001160   0.5707969   2.4446470  )
       128           C   tau( 128) = (   0.5000868   0.9548012   2.4981070  )
       129           C   tau( 129) = (   0.6671111   0.6664905   2.4640110  )
       130           C   tau( 130) = (   0.6666802   0.8585370   2.4895177  )
       131           C   tau( 131) = (   0.8329626   0.5698624   2.4498385  )
       132           C   tau( 132) = (   0.8335464   0.9552517   2.4962856  )
       133           C   tau( 133) = (   0.0000911   1.2451825   2.4876213  )
       134           C   tau( 134) = (   0.0001131   1.4371710   2.4617966  )
       135           C   tau( 135) = (   0.1670675   1.1488169   2.4970265  )
       136           C   tau( 136) = (   0.1662741   1.5330753   2.4437487  )
       137           C   tau( 137) = (   0.3332653   1.2449196   2.4879988  )
       138           C   tau( 138) = (   0.3337767   1.4368407   2.4576005  )
       139           C   tau( 139) = (   0.5001230   1.1482862   2.4940804  )
       140           C   tau( 140) = (   0.5000809   1.5342903   2.4464359  )
       141           C   tau( 141) = (   0.6669118   1.2449151   2.4881715  )
       142           C   tau( 142) = (   0.6664409   1.4368275   2.4575860  )
       143           C   tau( 143) = (   0.8331701   1.1488111   2.4971678  )
       144           C   tau( 144) = (   0.8339073   1.5330595   2.4436703  )
       145           C   tau( 145) = (   0.0001003   1.8211673   2.4126494  )
       146           C   tau( 146) = (   0.0000762   2.0135533   2.4010454  )
       147           C   tau( 147) = (   0.1666886   1.7253778   2.4216854  )
       148           C   tau( 148) = (   0.1666494   2.1103073   2.3983956  )
       149           C   tau( 149) = (   0.3333114   1.8216121   2.4144844  )
       150           C   tau( 150) = (   0.3333631   2.0140026   2.4017749  )
       151           C   tau( 151) = (   0.5000809   1.7256607   2.4249251  )
       152           C   tau( 152) = (   0.5001229   2.1104737   2.3992384  )
       153           C   tau( 153) = (   0.6668851   1.8216063   2.4144419  )
       154           C   tau( 154) = (   0.6667882   2.0139890   2.4016302  )
       155           C   tau( 155) = (   0.8334653   1.7253669   2.4216510  )
       156           C   tau( 156) = (   0.8335837   2.1103089   2.3982893  )

     number of k points=     6  gaussian smearing, width (Ry)=  0.1000
                       cart. coord. in units 2pi/alat
        k(    1) = (   0.0000000   0.0000000   0.0000000), wk =   0.2500000
        k(    2) = (   0.0000000  -0.2165064   0.0000000), wk =   0.2500000
        k(    3) = (   0.2500000   0.0000000   0.0000000), wk =   0.5000000
        k(    4) = (   0.2500000  -0.2165064   0.0000000), wk =   0.5000000
        k(    5) = (  -0.5000000   0.0000000   0.0000000), wk =   0.2500000
        k(    6) = (  -0.5000000  -0.2165064   0.0000000), wk =   0.2500000

     Largest allocated arrays     est. size (Mb)     dimensions
     Largest temporary arrays     est. size (Mb)     dimensions

     Initial potential from superposition of free atoms
     Check: negative starting charge=   -0.001552

     starting charge 1354.72292, renormalised to 1380.00000

     negative rho (up, down):  1.581E-03 0.000E+00
     Starting wfc are 1356 randomized atomic wfcs

     Self-consistent Calculation

     iteration #  1     ecut=    80.00 Ry     beta=0.70
     Davidson diagonalization with overlap
     c_bands:  5 eigenvalues not converged
     c_bands:  3 eigenvalues not converged
     c_bands:  3 eigenvalues not converged
     c_bands:  3 eigenvalues not converged
     c_bands:  4 eigenvalues not converged
     ethr =  1.00E-04,  avg # of iterations = 41.7

     negative rho (up, down):  2.535E+01 0.000E+00

     total energy              =  -10733.63980751 Ry
     Harris-Foulkes estimate   =  -19009.86717878 Ry
     estimated scf accuracy    <  214197.19559436 Ry

     iteration #  2     ecut=    80.00 Ry     beta=0.70
     Davidson diagonalization with overlap
     ethr =  1.00E-02,  avg # of iterations = 14.0

[...]

     iteration # 36     ecut=    80.00 Ry     beta=0.70
     Davidson diagonalization with overlap
     c_bands:  1 eigenvalues not converged
     ethr =  3.90E-10,  avg # of iterations =  8.7

[...]

     total energy              =  -13679.28785562 Ry
     Harris-Foulkes estimate   =  -13679.28785562 Ry
     estimated scf accuracy    <       0.00000002 Ry

     iteration # 42     ecut=    80.00 Ry     beta=0.70
     Davidson diagonalization with overlap
     ethr =  1.26E-12,  avg # of iterations =  3.0

     negative rho (up, down):  1.710E-03 0.000E+00

     End of self-consistent calculation

          k = 0.0000 0.0000 0.0000 (256287 PWs)   bands (ev):

   -16.5368 -15.7219 -15.4685 -14.7716 -14.4354 -14.1023 -13.9784 -13.7297
   -13.6584 -13.5122 -13.5010 -12.8621 -12.7304 -12.5430 -12.5198 -12.4842
   -12.4600 -11.0885 -10.9360 -10.8834 -10.8003 -10.6488  -9.7237  -9.1601
    -9.1316  -9.0174  -8.9258  -8.3717  -8.1998  -8.0629  -7.9788  -7.4290
    -7.3058  -7.1896  -7.0443  -6.9761  -6.9581  -6.9134  -6.9017  -5.7716
    -5.7550  -5.5380  -5.4247  -5.3953  -5.3599  -5.3083  -5.2749  -5.2606
    -4.8952  -4.8474  -4.6110  -4.2910  -4.2721  -4.2393  -4.2130  -4.0310
    -3.9934  -3.8807  -3.8117  -3.7002  -3.3671  -3.3524  -3.3501  -3.3059
    -3.0043  -2.9887  -2.9832  -2.9209  -2.8484  -2.8235  -2.8105  -2.7808
    -2.7797  -2.6529  -2.5572  -2.4923  -2.4254  -2.4135  -2.4125  -2.3725
    -2.3695  -2.3683  -2.3560  -2.3422  -2.3012  -2.2536  -2.2087  -2.1955
    -2.1571  -2.1386  -1.9648  -1.8820  -1.8568  -1.7683  -1.7532  -1.7401
    -1.7021  -1.6781  -1.6339  -1.5874  -1.5728  -1.5658  -1.5232  -1.5148
    -1.5142  -1.5044  -1.5036  -1.4739  -1.4339  -1.4141  -1.4127  -1.3952
    -1.3775  -1.3774  -1.3643  -1.2385  -1.2275  -1.2253  -1.1672  -1.1473
    -1.1451  -1.1423  -1.1253  -1.0979  -1.0977  -1.0751  -1.0252  -1.0245
    -1.0206  -1.0190  -0.9747  -0.9678  -0.9460  -0.9435  -0.9416  -0.9179
    -0.9173  -0.9021  -0.8950  -0.8872  -0.8777  -0.8662  -0.8495  -0.8324
    -0.7913  -0.7858  -0.7320  -0.7260  -0.7044  -0.6726  -0.6564  -0.6552
    -0.6307  -0.6247  -0.6150  -0.5948  -0.5860  -0.5839  -0.5669  -0.5604
    -0.5585  -0.5453  -0.5422  -0.5238  -0.5068  -0.4897  -0.4840  -0.4744
    -0.4448  -0.4445  -0.4369  -0.4331  -0.4329  -0.4215  -0.4206  -0.4192
    -0.4143  -0.4107  -0.3921  -0.3853  -0.3771  -0.3670  -0.3628  -0.3527
    -0.3392  -0.3368  -0.3239  -0.3190  -0.3145  -0.3140  -0.3117  -0.3052
    -0.3038  -0.2697  -0.2673  -0.2659  -0.2598  -0.2541  -0.2400  -0.2393
    -0.2312  -0.2218  -0.2175  -0.2152  -0.2143  -0.2098  -0.2077  -0.2060
    -0.1967  -0.1789  -0.1351  -0.1334  -0.1224  -0.1054  -0.0982  -0.0836
    -0.0709  -0.0554  -0.0509  -0.0494  -0.0413  -0.0397  -0.0344  -0.0225
    -0.0100  -0.0093   0.0064   0.0065   0.0079   0.0166   0.0253   0.0367
     0.0379   0.0398   0.0554   0.0555   0.0557   0.0933   0.0944   0.1003
     0.1248   0.1412   0.1508   0.1515   0.1555   0.1575   0.1784   0.1797
     0.1854   0.1900   0.2100   0.2103   0.2107   0.2209   0.2213   0.2233
     0.2237   0.2260   0.2297   0.2441   0.2543   0.2590   0.2645   0.2698
     0.2701   0.2748   0.2751   0.2929   0.2952   0.3063   0.3064   0.3138
     0.3299   0.3300   0.3415   0.3427   0.3430   0.3466   0.3482   0.3603
     0.3613   0.3697   0.3720   0.3786   0.3823   0.3829   0.3882   0.3884
     0.4004   0.4011   0.4230   0.4242   0.4275   0.4296   0.4327   0.4341
     0.4356   0.4360   0.4422   0.4425   0.4618   0.4714   0.4761   0.4774
     0.4801   0.5011   0.5014   0.5131   0.5236   0.5285   0.5286   0.5316
     0.5366   0.5525   0.5540   0.5585   0.5649   0.5655   0.5679   0.5689
     0.5734   0.5958   0.5975   0.6025   0.6044   0.6069   0.6128   0.6257
     0.6264   0.6266   0.6346   0.6348   0.6520   0.6553   0.6561   0.6605
     0.6617   0.6620   0.6634   0.6711   0.6837   0.6839   0.6884   0.6888
     0.6932   0.6938   0.6965   0.7068   0.7310   0.7337   0.7497   0.7656
     0.7661   0.7792   0.7832   0.7863   0.7898   0.7917   0.7921   0.7960
     0.8184   0.8392   0.8400   0.8437   0.8522   0.8545   0.8559   0.8620
     0.8670   0.8789   0.8854   0.9043   0.9104   0.9111   0.9129   0.9194
     0.9199   0.9384   0.9446   0.9464   0.9590   0.9596   0.9659   0.9662
     0.9746   0.9749   1.0055   1.0079   1.0129   1.0189   1.0236   1.0273
     1.0291   1.0329   1.0345   1.0487   1.0489   1.0513   1.0527   1.0597
     1.0669   1.0838   1.0847   1.0894   1.0898   1.1019   1.1063   1.1097
     1.1499   1.1554   1.1570   1.1600   1.1698   1.1720   1.1735   1.1763
     1.1785   1.1855   1.1861   1.1907   1.1931   1.1997   1.2026   1.2055
     1.2102   1.2149   1.2157   1.2171   1.2274   1.2342   1.2414   1.2423
     1.2472   1.2505   1.2574   1.2600   1.2610   1.2639   1.2733   1.2771
     1.2824   1.2878   1.2938   1.2976   1.2978   1.2985   1.3010   1.3024
     1.3038   1.3088   1.3300   1.3359   1.3393   1.3412   1.3419   1.3449
     1.3464   1.3480   1.3575   1.3604   1.3609   1.3698   1.3723   1.3729
     1.3735   1.3860   1.3905   1.3923   1.3935   1.3999   1.4052   1.4105
     1.4120   1.4149   1.4179   1.4396   1.4472   1.4508   1.4592   1.4642
[...]
     4.6230   4.6234   4.9409   5.0203   5.0347   5.0439   5.0946   5.1775
     5.3187   5.4287   5.4455   5.4836   5.5477   5.5582   5.6657   5.6712
     5.7968   5.9167   6.1002   6.1216   6.3171   6.3693   6.3730   6.4844
     6.5233   6.7026   6.8070   6.8199   6.8555   6.9271   7.0291   7.0423
     7.0751   7.2011   7.2509   7.2601   7.2954   7.3589   7.3795   7.4165
     7.4183   7.4211   7.4242   7.4640   7.5454   7.7021   7.7079   7.7316
     7.8641   7.9544   7.9554   8.0034   8.0434   8.1204   8.1556   8.3032
     8.3048   8.3135   8.3154   8.5738   8.5818   8.5920   8.6731   8.6751
     8.6941   8.7204   8.7282   8.8041   8.8310   8.8503   8.8773   8.9184
     8.9346   8.9826   9.0718   9.1107   9.1516   9.1539   9.1618   9.2006
     9.2023   9.3015   9.3087   9.3150   9.3171   9.3526   9.3565   9.3649
     9.3849   9.5304   9.5752   9.7171   9.7194   9.7625   9.7907   9.8191
     9.8289   9.8314   9.9202  10.0314  10.0567  10.0967  10.1006  10.3881
    10.4318  10.4866  10.5258  10.5262  10.5444  10.5450  10.5872  10.5984
    10.6292  10.6347  10.6396  10.6710

[...]

          k = 0.2500-0.2165 0.0000 (256316 PWs)   bands (ev):

[...]

          k =-0.5000 0.0000 0.0000 (256496 PWs)   bands (ev):

[...]

          k =-0.5000-0.2165 0.0000 (256328 PWs)   bands (ev):

   -16.4265 -15.2802 -15.2801 -15.2282 -14.8277 -14.5744 -14.5708 -14.4636
   -13.4546 -13.2472 -13.1120 -13.0542 -11.9703 -11.7147 -11.4529 -11.4385
   -11.3019 -11.2195 -11.0720 -11.0448 -10.9484 -10.9289 -10.8047 -10.8026
    -9.3828  -9.3823  -9.1996  -9.1588  -8.6313  -8.3391  -8.1926  -8.1707
    -7.6660  -7.6180  -7.4919  -7.4541  -5.9493  -5.6499  -5.5599  -5.3769
    -5.2507  -5.0005  -4.7497  -4.7248  -4.7166  -4.5792  -4.5746  -4.5398
    -4.5350  -4.5081  -4.4482  -4.4325  -4.0691  -3.9839  -3.9655  -3.8883
    -3.7759  -3.6404  -3.6076  -3.5932  -3.5814  -3.5572  -3.5547  -3.5236
    -3.5072  -3.4936  -3.4886  -3.4781  -3.3529  -3.2578  -3.2296  -3.1450
    -3.1309  -3.1003  -3.0913  -3.0896  -3.0653  -2.8592  -2.7970  -2.7811
    -2.6812  -2.6068  -2.5444  -2.4880  -2.3491  -2.3454  -2.0705  -2.0682
    -2.0222  -1.9901  -1.9457  -1.9435  -1.9414  -1.9404  -1.8321  -1.7951
    -1.6899  -1.6632  -1.6322  -1.6241  -1.5832  -1.5182  -1.4766  -1.4731
    -1.4698  -1.4614  -1.4520  -1.4501  -1.3972  -1.2182  -1.2136  -1.1841
    -1.1818  -1.1739  -1.1731  -1.1603  -1.1600  -1.1096  -1.0529  -1.0052
    -0.9980  -0.9603  -0.9597  -0.9179  -0.8620  -0.8602  -0.8557  -0.8541
    -0.8180  -0.8150  -0.8118  -0.8098  -0.8096  -0.8090  -0.8077  -0.8010
    -0.7979  -0.7972  -0.7718  -0.7672  -0.7658  -0.7638  -0.7631  -0.7437
    -0.7426  -0.7422  -0.7400  -0.7316  -0.7308  -0.7281  -0.7275  -0.6889
    -0.6855  -0.6227  -0.6206  -0.6116  -0.6073  -0.5871  -0.5844  -0.5750
    -0.5732  -0.5633  -0.5625  -0.5438  -0.5378  -0.5364  -0.5279  -0.5254
    -0.5104  -0.5097  -0.5069  -0.5056  -0.4978  -0.4948  -0.4943  -0.4886
    -0.4882  -0.4819  -0.4792  -0.4625  -0.4499  -0.4479  -0.4463  -0.4415
    -0.4268  -0.4255  -0.4222  -0.4214  -0.4032  -0.4026  -0.4015  -0.4012
    -0.3602  -0.3582  -0.3570  -0.3542  -0.3061  -0.3042  -0.3024  -0.2991
    -0.2453  -0.2441  -0.2204  -0.2196  -0.1967  -0.1963  -0.1881  -0.1871
    -0.1463  -0.1457  -0.1341  -0.1333  -0.1322  -0.1315  -0.1191  -0.1189
    -0.1125  -0.1102  -0.0845  -0.0839  -0.0729  -0.0699  -0.0643  -0.0629
    -0.0516  -0.0512  -0.0456  -0.0440   0.0294   0.0309   0.0387   0.0410
     0.0544   0.0554   0.0758   0.0784   0.0828   0.0831   0.0883   0.0905
     0.1010   0.1185   0.1309   0.1319   0.1333   0.1353   0.1726   0.1741
     0.1757   0.1800   0.1831   0.1834   0.1853   0.1856   0.2036   0.2181
     0.2203   0.2248   0.2305   0.2445   0.2479   0.2530   0.2723   0.3018
     0.3027   0.3244   0.3286   0.3296   0.3496   0.3527   0.3550   0.3555
     0.3583   0.3589   0.3603   0.3670   0.3707   0.3715   0.3779   0.3790
     0.3881   0.3912   0.4069   0.4322   0.4423   0.4451   0.4459   0.4470
     0.4514   0.4547   0.4595   0.4812   0.4890   0.4921   0.4932   0.4988
     0.4998   0.5001   0.5009   0.5019   0.5035   0.5091   0.5103   0.5173
     0.5318   0.5343   0.5470   0.5521   0.5587   0.5626   0.5675   0.5777
     0.5796   0.6010   0.6150   0.6168   0.6202   0.6409   0.6442   0.6475
     0.6507   0.6525   0.6532   0.6547   0.6614   0.6632   0.6760   0.6789
     0.6801   0.6930   0.6948   0.6973   0.6983   0.7080   0.7098   0.7099
     0.7121   0.7123   0.7191   0.7218   0.7240   0.7275   0.7304   0.7311
     0.7323   0.7441   0.7472   0.7517   0.7554   0.7557   0.7591   0.7596
     0.7621   0.7679   0.7725   0.7824   0.8123   0.8186   0.8210   0.8224
     0.8311   0.8335   0.8354   0.8365   0.8501   0.8572   0.8614   0.8651
     0.8663   0.8674   0.8715   0.8827   0.8881   0.8993   0.9084   0.9188
     0.9224   0.9325   0.9367   0.9540   0.9550   0.9585   0.9639   0.9648
     0.9746   0.9758   0.9768   0.9879   0.9908   1.0049   1.0060   1.0106
     1.0114   1.0151   1.0173   1.0216   1.0252   1.0281   1.0282   1.0318
     1.0383   1.0388   1.0464   1.0505   1.0517   1.0649   1.0688   1.0713
     1.0737   1.0824   1.0875   1.0944   1.0977   1.0980   1.0995   1.1098
     1.1131   1.1173   1.1208   1.1232   1.1237   1.1328   1.1484   1.1496
     1.1544   1.1556   1.1619   1.1789   1.1796   1.1805   1.1848   1.1887
     1.1900   1.1915   1.1970   1.2182   1.2190   1.2194   1.2211   1.2273
     1.2350   1.2372   1.2381   1.2388   1.2464   1.2484   1.2500   1.2543
     1.2563   1.2718   1.2781   1.2813   1.2880   1.2884   1.2966   1.2977
     1.3025   1.3045   1.3141   1.3193   1.3221   1.3236   1.3286   1.3381
     1.3411   1.3422   1.3472   1.3489   1.3532   1.3536   1.3700   1.3750
     1.3836   1.3859   1.3877   1.3921   1.3936   1.3960   1.3996   1.4006
[...]
     5.1097   5.1456   5.2317   5.2424   5.2508   5.3318   5.3337   5.3971
     5.4073   5.4445   5.5109   5.5582   5.5840   5.6169   5.6365   5.6418
     5.6755   5.7191   5.7263   5.7268   5.7544   5.8062   5.9833   6.0451
     6.0484   6.0693   6.1286   6.1509   6.1521   6.1939   6.2187   6.2862
     6.3964   6.4087   6.4146   6.4269   6.8083   6.8168   6.8378   6.8444
     7.1921   7.2020   7.2818   7.2848   7.5062   7.5107   7.5120   7.5336
     7.5958   7.6046   7.7185   7.7357   7.7359   7.7420   7.9499   7.9506
     7.9521   7.9535   8.0962   8.1319   8.1366   8.2035   8.2113   8.4021
     8.4071   8.4602   8.4874   8.5430   8.6133   8.6275   8.6363   8.6414
     8.6861   8.6879   8.8199   8.8712   8.9797   8.9928   9.0033   9.0043
     9.2364   9.2474   9.3185   9.3262   9.4230   9.4239   9.4244   9.4257
     9.5116   9.5131   9.5272   9.5307   9.5946   9.6015   9.6088   9.6097
     9.6113   9.6241   9.6646   9.6761   9.7107   9.7232   9.9620   9.9828
    10.0517  10.0660  10.2668  10.2802  10.2898  10.2912  10.3643  10.3669
    10.5182  10.5259  10.5291  10.5391

     the Fermi energy is     3.9294 ev

!    total energy              =  -13679.28785562 Ry
     Harris-Foulkes estimate   =  -13679.28785562 Ry
     estimated scf accuracy    <          2.8E-09 Ry

     The total energy is the sum of the following terms:

     one-electron contribution = -106325.46836729 Ry
     hartree contribution      =   54658.42753617 Ry
     xc contribution           =   -4789.49134785 Ry
     ewald contribution        =   42783.95623080 Ry
     Dispersion Correction     =      -3.10053462 Ry
     smearing contrib. (-TS)   =      -3.61137283 Ry

     convergence has been achieved in  42 iterations

     Writing output data file gc.save

     General routines

     Parallel routines

   This run was terminated on:  16: 9:58  20Apr2017

   JOB DONE.