     Program PWSCF v.5.4.0 starts on  7Sep2017 at 21: 0:41

     Current dimensions of program PWSCF are:
     Max number of different atomic species (ntypx) = 10
     Max number of k-points (npk) =  40000
     Max angular momentum in pseudopotentials (lmaxx) =  3

     Parameters for Dispersion Correction:
       atom      VdW radius       C_6

        Cu         2.952        374.666
        C_h        2.744         60.710
        C          2.744         60.710

     bravais-lattice index     =            0
     lattice parameter (alat)  =      13.9425  a.u.
     unit-cell volume          =   21209.0878 (a.u.)^3
     number of atoms/cell      =          148
     number of atomic types    =            3
     number of electrons       =      1292.00
     number of Kohn-Sham states=          775
     kinetic-energy cutoff     =      80.0000  Ry
     charge density cutoff     =     320.0000  Ry
     convergence threshold     =      1.0E-08
     mixing beta               =       0.7000
     number of iterations used =            8  local-TF  mixing
     Exchange-correlation      =  SLA  PW   PBX  PBC ( 1  4  3  4 0 0)

     celldm(1)=  13.942539  celldm(2)=   0.000000  celldm(3)=   0.000000
     celldm(4)=   0.000000  celldm(5)=   0.000000  celldm(6)=   0.000000

     crystal axes: (cart. coord. in units of alat)
               a(1) = (   1.000000   0.000000   0.000000 )
               a(2) = (   0.000000   2.309401   0.000000 )
               a(3) = (   0.000000   0.000000   3.388418 )

     reciprocal axes: (cart. coord. in units 2 pi/alat)
               b(1) = (  1.000000  0.000000  0.000000 )
               b(2) = (  0.000000  0.433013  0.000000 )
               b(3) = (  0.000000  0.000000  0.295123 )

     PseudoPot. # 1 for Cu read from file:
     /home/549/hxw549/Short/pseudopotentials/Cu.pbe-n-van_ak.UPF
     MD5 check sum: 601f7c30f7467666bec936e0661ce3e1
     Pseudo is Ultrasoft + core correction, Zval = 11.0
     Generated by new atomic code, or converted to UPF format
     Using radial grid of  867 points,  6 beta functions with:
                l(1) =   0
                l(2) =   0
                l(3) =   1
                l(4) =   1
                l(5) =   2
                l(6) =   2
     Q(r) pseudized with  8 coefficients,  rinner =    1.400   1.400   1.400
                                                       1.400   1.400

     PseudoPot. # 2 for C  read from file:
     /home/549/hxw549/Short/pseudopotentials/C.star1s-pbe-mt_gipaw.UPF
     MD5 check sum: ef0cb3dee31bd9e4ba2a832a2c716264
     Pseudo is Norm-conserving, Zval =  5.0
     Generated by new atomic code, or converted to UPF format
     Using radial grid of 1073 points,  1 beta functions with:
                l(1) =   0

     PseudoPot. # 3 for C  read from file:
     /home/549/hxw549/Short/pseudopotentials/C.pbe-mt_gipaw.UPF
     MD5 check sum: 5ac2f21f2c440b14befe521540822c15
     Pseudo is Norm-conserving, Zval =  4.0
     Generated by new atomic code, or converted to UPF format
     Using radial grid of 1073 points,  1 beta functions with:
                l(1) =   0

     atomic species   valence    mass     pseudopotential
        Cu            11.00    63.54600     Cu( 1.00)
        C_h            5.00    12.01070     C ( 1.00)
        C              4.00    12.01070     C ( 1.00)

     No symmetry found

   Cartesian axes

     site n.     atom                  positions (alat units)
         1           Cu  tau(   1) = (   0.0000000   0.0000567   0.9971194  )
         2           Cu  tau(   2) = (   0.2499927   0.2309760   0.9972946  )
         3           Cu  tau(   3) = (   0.5000000   0.0000313   0.9971490  )
         4           Cu  tau(   4) = (   0.7500073   0.2309760   0.9972946  )
         5           Cu  tau(   5) = (   0.0000000   0.4618437   0.9973425  )
         6           Cu  tau(   6) = (   0.2499840   0.6927701   0.9971914  )
         7           Cu  tau(   7) = (   0.5000000   0.4618722   0.9973119  )
         8           Cu  tau(   8) = (   0.7500160   0.6927701   0.9971914  )
         9           Cu  tau(   9) = (   0.0000000   0.9237521   0.9970621  )
        10           Cu  tau(  10) = (   0.2500157   1.1547420   0.9971373  )
        11           Cu  tau(  11) = (   0.5000000   0.9237453   0.9970727  )
        12           Cu  tau(  12) = (   0.7499843   1.1547420   0.9971373  )
        13           Cu  tau(  13) = (   0.0000000   1.3856555   0.9972830  )
        14           Cu  tau(  14) = (   0.2500029   1.6165618   0.9973242  )
        15           Cu  tau(  15) = (   0.5000000   1.3857014   0.9973005  )
        16           Cu  tau(  16) = (   0.7499971   1.6165618   0.9973242  )
        17           Cu  tau(  17) = (   0.0000000   1.8474941   0.9971969  )
        18           Cu  tau(  18) = (   0.2500043   2.0784518   0.9970745  )
        19           Cu  tau(  19) = (   0.5000000   1.8474499   0.9971773  )
        20           Cu  tau(  20) = (   0.7499957   2.0784518   0.9970745  )
        21           Cu  tau(  21) = (   0.0000000   0.2308065   1.2457643  )
        22           Cu  tau(  22) = (   0.2499892  -0.0001010   1.2455764  )
        23           Cu  tau(  23) = (   0.5000000   0.2308938   1.2456746  )
        24           Cu  tau(  24) = (   0.7500108  -0.0001010   1.2455764  )
        25           Cu  tau(  25) = (   0.0000000   0.6929786   1.2456406  )
        26           Cu  tau(  26) = (   0.2499874   0.4619293   1.2457459  )
        27           Cu  tau(  27) = (   0.5000000   0.6929012   1.2456074  )
        28           Cu  tau(  28) = (   0.7500126   0.4619293   1.2457459  )
        29           Cu  tau(  29) = (   0.0000000   1.1546142   1.2455676  )
        30           Cu  tau(  30) = (   0.2499981   0.9237849   1.2455149  )
        31           Cu  tau(  31) = (   0.5000000   1.1545763   1.2455800  )
        32           Cu  tau(  32) = (   0.7500019   0.9237849   1.2455149  )
        33           Cu  tau(  33) = (   0.0000000   1.6166029   1.2456910  )
        34           Cu  tau(  34) = (   0.2500161   1.3855492   1.2457134  )
        35           Cu  tau(  35) = (   0.5000000   1.6166555   1.2458019  )
        36           Cu  tau(  36) = (   0.7499839   1.3855492   1.2457134  )
        37           Cu  tau(  37) = (   0.0000000   2.0784993   1.2455162  )
        38           Cu  tau(  38) = (   0.2500161   1.8476387   1.2456210  )
        39           Cu  tau(  39) = (   0.5000000   2.0784755   1.2455152  )
        40           Cu  tau(  40) = (   0.7499839   1.8476387   1.2456210  )
        41           Cu  tau(  41) = (   0.0000000  -0.0003182   1.4954305  )
        42           Cu  tau(  42) = (   0.2500224   0.2307186   1.4951678  )
        43           Cu  tau(  43) = (   0.5000000  -0.0002059   1.4952775  )
        44           Cu  tau(  44) = (   0.7499776   0.2307186   1.4951678  )
        45           Cu  tau(  45) = (   0.0000000   0.4620254   1.4950571  )
        46           Cu  tau(  46) = (   0.2500339   0.6931225   1.4952807  )
        47           Cu  tau(  47) = (   0.5000000   0.4619896   1.4952144  )
        48           Cu  tau(  48) = (   0.7499661   0.6931225   1.4952807  )
        49           Cu  tau(  49) = (   0.0000000   0.9238798   1.4954544  )
        50           Cu  tau(  50) = (   0.2499708   1.1544329   1.4953374  )
        51           Cu  tau(  51) = (   0.5000000   0.9237633   1.4954072  )
        52           Cu  tau(  52) = (   0.7500292   1.1544329   1.4953374  )
        53           Cu  tau(  53) = (   0.0000000   1.3854453   1.4952066  )
        54           Cu  tau(  54) = (   0.2499861   1.6167017   1.4951298  )
        55           Cu  tau(  55) = (   0.5000000   1.3853760   1.4951346  )
        56           Cu  tau(  56) = (   0.7500139   1.6167017   1.4951298  )
        57           Cu  tau(  57) = (   0.0000000   1.8477718   1.4952308  )
        58           Cu  tau(  58) = (   0.2499930   2.0785254   1.4954090  )
        59           Cu  tau(  59) = (   0.5000000   1.8478762   1.4953503  )
        60           Cu  tau(  60) = (   0.7500070   2.0785254   1.4954090  )
[...]
       105           C   tau( 105) = (   0.4164379   0.0962174   2.3860158  )
       106           C   tau( 106) = (   0.4164420   0.2886629   2.3856823  )
       107           C   tau( 107) = (   0.5833148  -0.0000818   2.3845687  )
       108           C   tau( 108) = (   0.5833148   0.3849277   2.3842391  )
       109           C   tau( 109) = (   0.7501904   0.0962174   2.3860158  )
       110           C   tau( 110) = (   0.7501863   0.2886629   2.3856823  )
       111           C   tau( 111) = (   0.9166823   0.0000435   2.3878440  )
       112           C   tau( 112) = (   0.9168246   0.3848966   2.3886743  )
       113           C   tau( 113) = (   0.0833144   0.6735163   2.3892509  )
       114           C   tau( 114) = (   0.0833144   0.8659398   2.3870960  )
       115           C   tau( 115) = (   0.2497901   0.5773226   2.3882842  )
       116           C   tau( 116) = (   0.2500571   0.9622141   2.3870264  )
       117           C   tau( 117) = (   0.4165233   0.6735984   2.3858047  )
       118           C   tau( 118) = (   0.4165179   0.8660537   2.3866148  )
       119           C   tau( 119) = (   0.5833148   0.5773685   2.3848465  )
       120           C_h tau( 120) = (   0.5833148   0.9623380   2.3860825  )
       121           C   tau( 121) = (   0.7501050   0.6735984   2.3858047  )
       122           C   tau( 122) = (   0.7501118   0.8660537   2.3866148  )
       123           C   tau( 123) = (   0.9168382   0.5773226   2.3882842  )
       124           C   tau( 124) = (   0.9165712   0.9622141   2.3870264  )
       125           C   tau( 125) = (   0.0833144   1.2508867   2.3852683  )
       126           C   tau( 126) = (   0.0833144   1.4433300   2.3840871  )
       127           C   tau( 127) = (   0.2500504   1.1546708   2.3859697  )
       128           C   tau( 128) = (   0.2502089   1.5396104   2.3857176  )
       129           C   tau( 129) = (   0.4168242   1.2509657   2.3878953  )
       130           C   tau( 130) = (   0.4168012   1.4433958   2.3886602  )
       131           C   tau( 131) = (   0.5833148   1.1547731   2.3885512  )
       132           C   tau( 132) = (   0.5833148   1.5396099   2.3901428  )
       133           C   tau( 133) = (   0.7498054   1.2509657   2.3878953  )
       134           C   tau( 134) = (   0.7498285   1.4433958   2.3886602  )
       135           C   tau( 135) = (   0.9165780   1.1546708   2.3859697  )
       136           C   tau( 136) = (   0.9164207   1.5396104   2.3857176  )
       137           C   tau( 137) = (   0.0833144   1.8283510   2.3842019  )
       138           C   tau( 138) = (   0.0833144   2.0207949   2.3863399  )
       139           C   tau( 139) = (   0.2502103   1.7320513   2.3858703  )
       140           C   tau( 140) = (   0.2499324   2.1169980   2.3865340  )
       141           C   tau( 141) = (   0.4167294   1.8282368   2.3882160  )
       142           C   tau( 142) = (   0.4167497   2.0206763   2.3869561  )
       143           C   tau( 143) = (   0.5833148   1.7319961   2.3895398  )
       144           C   tau( 144) = (   0.5833148   2.1168754   2.3870198  )
       145           C   tau( 145) = (   0.7498990   1.8282368   2.3882160  )
       146           C   tau( 146) = (   0.7498786   2.0206763   2.3869561  )
       147           C   tau( 147) = (   0.9164180   1.7320513   2.3858703  )
       148           C   tau( 148) = (   0.9166959   2.1169980   2.3865340  )

     number of k points=     6  gaussian smearing, width (Ry)=  0.1000
                       cart. coord. in units 2pi/alat
        k(    1) = (   0.0000000   0.0000000   0.0000000), wk =   0.2500000
        k(    2) = (   0.0000000  -0.2165064   0.0000000), wk =   0.2500000
        k(    3) = (   0.2500000   0.0000000   0.0000000), wk =   0.5000000
        k(    4) = (   0.2500000  -0.2165064   0.0000000), wk =   0.5000000
        k(    5) = (  -0.5000000   0.0000000   0.0000000), wk =   0.2500000
        k(    6) = (  -0.5000000  -0.2165064   0.0000000), wk =   0.2500000

     Largest allocated arrays     est. size (Mb)     dimensions
     Largest temporary arrays     est. size (Mb)     dimensions

     Initial potential from superposition of free atoms
     Check: negative starting charge=   -0.001843

     starting charge 1266.81751, renormalised to 1292.00000

     negative rho (up, down):  1.879E-03 0.000E+00
     Starting wfc are 1284 randomized atomic wfcs

     Self-consistent Calculation

     iteration #  1     ecut=    80.00 Ry     beta=0.70
     Davidson diagonalization with overlap
     c_bands:  1 eigenvalues not converged
     c_bands:  2 eigenvalues not converged
     ethr =  1.00E-04,  avg # of iterations = 35.2

     negative rho (up, down):  2.723E+01 0.000E+00

     total energy              =   -9476.86081972 Ry
     Harris-Foulkes estimate   =  -17310.57143398 Ry
     estimated scf accuracy    <  180106.79703629 Ry

     iteration #  2     ecut=    80.00 Ry     beta=0.70
     Davidson diagonalization with overlap
     ethr =  1.00E-02,  avg # of iterations = 12.2

[...]

     iteration # 38     ecut=    80.00 Ry     beta=0.70
     Davidson diagonalization with overlap
     c_bands:  1 eigenvalues not converged
     ethr =  8.75E-09,  avg # of iterations =  7.2

[...]

     total energy              =  -12707.14301126 Ry
     Harris-Foulkes estimate   =  -12707.14301126 Ry
     estimated scf accuracy    <       0.00000002 Ry

     iteration # 47     ecut=    80.00 Ry     beta=0.70
     Davidson diagonalization with overlap
     ethr =  1.21E-12,  avg # of iterations =  3.0

     negative rho (up, down):  2.115E-03 0.000E+00

     End of self-consistent calculation

          k = 0.0000 0.0000 0.0000 (256287 PWs)   bands (ev):

   -17.2828 -16.2345 -16.0880 -15.4305 -15.0442 -14.7914 -14.6913 -14.2532
   -14.1991 -14.1396 -14.1244 -13.4674 -13.3246 -13.1548 -13.1229 -13.0871
   -13.0799 -11.6704 -11.5334 -11.4865 -11.3891 -11.2059 -10.3534  -9.7693
    -9.7612  -9.6268  -9.5238  -8.9880  -8.7996  -8.6741  -8.6019  -8.0467
    -7.9035  -7.7625  -7.6414  -7.5815  -7.5742  -7.5353  -7.5239  -6.3601
    -6.3500  -6.1257  -6.0216  -6.0201  -5.9498  -5.8902  -5.8599  -5.8446
    -5.4982  -5.4850  -5.3039  -4.8927  -4.8399  -4.7994  -4.6357  -4.6217
    -4.5834  -4.4254  -4.2572  -4.1473  -3.9894  -3.9879  -3.9699  -3.9474
    -3.6187  -3.5504  -3.5297  -3.5254  -3.4213  -3.4183  -3.4073  -3.4002
    -3.2769  -3.1868  -3.1227  -3.0603  -3.0160  -3.0080  -3.0075  -3.0060
    -2.9916  -2.8587  -2.8352  -2.7994  -2.7815  -2.7450  -2.7399  -2.7393
    -2.7186  -2.7142  -2.5333  -2.4333  -2.3775  -2.3765  -2.3391  -2.3362
    -2.1946  -2.1921  -2.1822  -2.1770  -2.1521  -2.1521  -2.1519  -2.1516
    -2.1132  -2.0785  -2.0778  -2.0359  -2.0213  -2.0211  -2.0210  -2.0205
    -1.9607  -1.8417  -1.7771  -1.7439  -1.7387  -1.7379  -1.7377  -1.7029
    -1.6930  -1.6717  -1.6584  -1.6568  -1.6115  -1.6017  -1.5897  -1.5707
    -1.5645  -1.5633  -1.5611  -1.5510  -1.5398  -1.5352  -1.5348  -1.5155
    -1.5141  -1.4576  -1.4415  -1.4287  -1.4157  -1.3840  -1.3808  -1.3770
    -1.3716  -1.3529  -1.2990  -1.2922  -1.2637  -1.2621  -1.2508  -1.2116
    -1.2114  -1.1918  -1.1897  -1.1751  -1.1670  -1.1641  -1.1273  -1.1199
    -1.1096  -1.1070  -1.0495  -1.0468  -1.0357  -1.0297  -1.0270  -1.0248
    -1.0247  -1.0221  -1.0206  -1.0158  -1.0155  -0.9983  -0.9958  -0.9812
    -0.9518  -0.9413  -0.9380  -0.9346  -0.9234  -0.9190  -0.9180  -0.9173
    -0.8969  -0.8589  -0.8580  -0.8574  -0.8564  -0.8556  -0.8546  -0.8538
    -0.8528  -0.8526  -0.8499  -0.8483  -0.8482  -0.8479  -0.8457  -0.8431
    -0.8419  -0.8334  -0.8298  -0.8293  -0.8224  -0.7857  -0.6898  -0.6897
    -0.6858  -0.6835  -0.6825  -0.6604  -0.6585  -0.6415  -0.6413  -0.6199
    -0.6196  -0.6058  -0.6044  -0.6029  -0.6025  -0.5878  -0.5644  -0.5638
    -0.5619  -0.5613  -0.5539  -0.5529  -0.5422  -0.5420  -0.4922  -0.4921
    -0.4383  -0.4379  -0.4276  -0.4260  -0.4258  -0.4245  -0.4107  -0.4104
    -0.4049  -0.4047  -0.4045  -0.4041  -0.3998  -0.3997  -0.3852  -0.3851
    -0.3850  -0.3772  -0.3753  -0.3746  -0.3511  -0.3505  -0.2994  -0.2988
    -0.2968  -0.2911  -0.2909  -0.2644  -0.2644  -0.2644  -0.2644  -0.2491
    -0.2474  -0.2468  -0.2425  -0.2424  -0.2242  -0.2212  -0.2196  -0.2193
    -0.2149  -0.2145  -0.2144  -0.2141  -0.2117  -0.2088  -0.1927  -0.1901
    -0.1894  -0.1881  -0.1874  -0.1685  -0.1208  -0.1203  -0.1182  -0.1181
    -0.1154  -0.0740  -0.0716  -0.0698  -0.0687  -0.0678  -0.0625  -0.0621
    -0.0619  -0.0617  -0.0615  -0.0534  -0.0470  -0.0343  -0.0113  -0.0088
    -0.0077  -0.0077   0.0010   0.0184   0.0211   0.0214   0.0218   0.0263
     0.0301   0.0454   0.0461   0.0476   0.0482   0.0488   0.0491   0.0624
     0.0636   0.0637   0.0638   0.0691   0.0764   0.0771   0.0777   0.0994
     0.1021   0.1225   0.1352   0.1358   0.1577   0.1644   0.1649   0.1891
     0.1935   0.2325   0.2377   0.2383   0.2386   0.2398   0.2432   0.2490
     0.2700   0.2731   0.2737   0.2738   0.2744   0.2839   0.2842   0.2935
     0.3263   0.3408   0.3408   0.3475   0.3492   0.3503   0.3504   0.3774
     0.3833   0.3835   0.3840   0.3842   0.4043   0.4148   0.4171   0.4221
     0.4236   0.4364   0.4370   0.4391   0.4403   0.4776   0.4792   0.4934
     0.4944   0.4966   0.4969   0.4971   0.5088   0.5240   0.5274   0.5305
     0.5330   0.5345   0.5356   0.5356   0.5374   0.5397   0.5467   0.5472
     0.5481   0.5536   0.5544   0.5555   0.5631   0.5642   0.5853   0.5957
     0.6057   0.6058   0.6162   0.6164   0.6486   0.6495   0.6499   0.6506
     0.6525   0.6528   0.6535   0.6540   0.6642   0.6655   0.6739   0.6785
     0.6789   0.6793   0.6803   0.6873   0.6876   0.6974   0.6978   0.7096
     0.7200   0.7205   0.7207   0.7245   0.7310   0.7324   0.7401   0.7426
     0.7462   0.7485   0.7485   0.7506   0.7552   0.7558   0.7595   0.7623
     0.7684   0.7787   0.8057   0.8060   0.8161   0.8175   0.8232   0.8242
     0.8244   0.8252   0.8556   0.8561   0.8697   0.8708   0.8762   0.8762
     0.8907   0.8910   0.9000   0.9003   0.9008   0.9023   0.9090   0.9225
     0.9369   0.9376   0.9393   0.9418   0.9424   0.9437   0.9589   0.9664
     0.9774   0.9779   0.9859   0.9863   0.9970   1.0012   1.0080   1.0105
[...]
     3.8517   3.8543   3.8552   3.8911   3.9673   3.9802   3.9860   4.0059
     4.0078   4.0089   4.0095   4.0122   4.0136   4.2304   4.2487   4.2493
     4.2503   4.3570   4.3979   4.6771   4.7655   4.8492   4.8658   4.9246
     5.3048   5.3922   5.3985   5.4060   5.7043   5.7092   5.7215   5.7240
     5.9188   5.9296   6.1923   6.3442   6.3482   6.4081   6.4155   6.4699
     6.4726   6.4773   6.4835   6.5781   6.5941   6.6055   6.7166   6.7740
     6.7802   6.7938   6.8117   6.8184   7.0124   7.0495   7.0529   7.0597
     7.0712   7.0920   7.3561   7.3576   7.5093   7.5493   7.5512   7.6944
     7.6961   7.7068   7.7096   8.0020   8.0385   8.0873   8.1351   8.1922
     8.2244   8.2994   8.3046   8.3057   8.3351   8.3365   8.3461   8.4043
     8.4120   8.4229   8.4963   8.5552   8.5647   8.5730   8.6618   8.6646
     8.6676   8.6686   8.8134   8.8159   8.8284   8.8329   8.8383   8.8399
     9.1073   9.1093   9.1101   9.1159   9.1197   9.1394   9.1744   9.3168
     9.3445   9.3488   9.4223   9.4795   9.4899   9.5769   9.5783   9.6616
     9.6711   9.8089   9.8308  10.0435  10.0437  10.1201  10.1456

[...]

          k = 0.2500-0.2165 0.0000 (256316 PWs)   bands (ev):

[...]

          k =-0.5000 0.0000 0.0000 (256496 PWs)   bands (ev):

[...]

          k =-0.5000-0.2165 0.0000 (256328 PWs)   bands (ev):

   -17.1701 -15.9786 -15.8205 -15.7956 -15.3896 -15.2199 -15.1509 -15.1148
   -14.0576 -13.8411 -13.7098 -13.6735 -12.6829 -12.4579 -12.0021 -11.9972
   -11.9226 -11.7758 -11.6721 -11.5891 -11.5437 -11.5325 -11.4238 -11.4054
   -10.0447 -10.0384  -9.7700  -9.7239  -9.2273  -8.9138  -8.7979  -8.7596
    -8.2693  -8.2320  -8.0222  -8.0002  -6.5358  -6.3446  -6.1230  -5.9495
    -5.8398  -5.6266  -5.3889  -5.3152  -5.3068  -5.2195  -5.2144  -5.1818
    -5.1799  -5.1797  -5.0190  -5.0051  -4.9557  -4.5122  -4.3888  -4.3513
    -4.3267  -4.3205  -4.2642  -4.2149  -4.2020  -4.1985  -4.1980  -4.1976
    -4.0822  -4.0762  -3.9157  -3.8776  -3.8650  -3.8586  -3.7555  -3.7462
    -3.7039  -3.6903  -3.6011  -3.5930  -3.5859  -3.4875  -3.4666  -3.4568
    -3.1734  -3.0872  -3.0725  -3.0622  -2.6371  -2.5823  -2.5814  -2.5793
    -2.5790  -2.5787  -2.5449  -2.5290  -2.5238  -2.5233  -2.4098  -2.3534
    -2.1642  -2.1533  -2.1099  -2.1008  -2.0967  -2.0960  -2.0531  -2.0500
    -2.0218  -2.0185  -2.0169  -2.0111  -1.9379  -1.8032  -1.8031  -1.8020
    -1.8020  -1.7717  -1.7394  -1.7282  -1.5681  -1.5241  -1.5093  -1.5023
    -1.4936  -1.4936  -1.4935  -1.4935  -1.4596  -1.4565  -1.4541  -1.4540
    -1.4338  -1.4336  -1.4334  -1.4334  -1.3844  -1.3843  -1.3841  -1.3838
    -1.3825  -1.3823  -1.3818  -1.3816  -1.3587  -1.3587  -1.3585  -1.3585
    -1.3093  -1.3086  -1.3075  -1.3075  -1.3038  -1.2387  -1.2336  -1.2332
    -1.2324  -1.1912  -1.1911  -1.1909  -1.1909  -1.1742  -1.1713  -1.1711
    -1.1708  -1.1284  -1.1221  -1.1220  -1.1217  -1.1174  -1.1158  -1.1158
    -1.1157  -1.1115  -1.0964  -1.0926  -1.0905  -1.0879  -1.0574  -1.0573
    -1.0570  -1.0569  -1.0411  -1.0404  -1.0402  -1.0402  -1.0378  -1.0373
    -1.0372  -1.0369  -1.0369  -1.0152  -0.8827  -0.8826  -0.8821  -0.8820
    -0.8535  -0.8530  -0.8527  -0.8527  -0.8035  -0.7712  -0.7703  -0.7701
    -0.7696  -0.7692  -0.7684  -0.7668  -0.7628  -0.7623  -0.7616  -0.7614
    -0.7042  -0.7005  -0.7004  -0.7000  -0.6937  -0.6891  -0.6885  -0.6881
    -0.6747  -0.6679  -0.6673  -0.6671  -0.6424  -0.5836  -0.5714  -0.5711
    -0.5684  -0.5673  -0.5670  -0.5664  -0.5099  -0.4986  -0.4982  -0.4980
    -0.4960  -0.4496  -0.4489  -0.4487  -0.4460  -0.4285  -0.4284  -0.4275
    -0.4275  -0.4102  -0.4002  -0.3999  -0.3895  -0.3894  -0.3885  -0.3885
    -0.3754  -0.3517  -0.3481  -0.3475  -0.3355  -0.2739  -0.2739  -0.2732
    -0.2731  -0.2578  -0.2578  -0.2572  -0.2572  -0.2416  -0.2407  -0.2403
    -0.2391  -0.1600  -0.1593  -0.1584  -0.1577  -0.1536  -0.1535  -0.1531
    -0.1530  -0.1519  -0.1495  -0.1495  -0.1470  -0.1128  -0.1128  -0.1126
    -0.1126  -0.1007  -0.1002  -0.0997  -0.0993  -0.0964  -0.0961  -0.0959
    -0.0957  -0.0690  -0.0270  -0.0268  -0.0262  -0.0259  -0.0005  -0.0001
     0.0017   0.0024   0.0484   0.0490   0.0537   0.0549   0.0607   0.0651
     0.0791   0.0796   0.0801   0.0803   0.0854   0.0862   0.0879   0.0885
     0.0893   0.0900   0.0930   0.0937   0.1000   0.1002   0.1008   0.1009
     0.1061   0.1062   0.1063   0.1064   0.1191   0.1226   0.1228   0.1230
     0.1367   0.1508   0.1508   0.1509   0.1510   0.1601   0.1611   0.1614
     0.1636   0.2095   0.2104   0.2109   0.2111   0.2338   0.2432   0.2436
     0.2443   0.2516   0.2738   0.3106   0.3139   0.3192   0.3261   0.3270
     0.3284   0.3292   0.3358   0.3410   0.3443   0.3450   0.3454   0.3466
     0.3552   0.3608   0.3609   0.3613   0.3615   0.3640   0.3683   0.3686
     0.3690   0.3695   0.3711   0.3726   0.3787   0.3859   0.3978   0.4008
     0.4468   0.4482   0.4502   0.4521   0.4572   0.4575   0.4579   0.4583
     0.4689   0.4691   0.4692   0.4695   0.5059   0.5068   0.5078   0.5085
     0.5097   0.5098   0.5103   0.5108   0.5422   0.5534   0.5537   0.5541
     0.5542   0.5582   0.5660   0.5671   0.5678   0.5680   0.5682   0.5699
     0.5759   0.5762   0.5765   0.5765   0.5879   0.5890   0.5916   0.5918
     0.6022   0.6059   0.6076   0.6092   0.6633   0.6761   0.6762   0.6788
     0.6789   0.6828   0.6829   0.6829   0.6832   0.6863   0.6900   0.6907
     0.6930   0.6971   0.7072   0.7104   0.7280   0.7282   0.7290   0.7291
     0.7302   0.7306   0.7318   0.7320   0.7708   0.7783   0.7830   0.7832
     0.8007   0.8100   0.8113   0.8116   0.8118   0.8145   0.8287   0.8329
     0.8474   0.8475   0.8481   0.8482   0.8688   0.8705   0.8725   0.8728
     0.9251   0.9251   0.9257   0.9258   0.9573   0.9577   0.9595   0.9597
     1.0023   1.0107   1.0121   1.0129   1.0157   1.0207   1.0256   1.0267
[...]
     3.9991   4.2239   4.2246   4.2260   4.2319   4.3116   4.3253   4.3358
     4.3378   4.5090   4.5515   4.5555   4.5582   4.5637   4.5901   4.5958
     4.6416   4.7922   4.8513   4.8858   4.9012   5.0064   5.0388   5.0690
     5.1631   5.1656   5.1716   5.1728   5.2245   5.2370   5.2990   5.3040
     5.3259   5.3333   5.3462   5.3496   5.5055   5.5951   5.7300   5.7336
     5.7449   5.7460   5.7481   5.7493   5.8404   5.8610   5.8864   5.8874
     6.7813   6.7827   6.7835   6.7839   7.0989   7.1140   7.1180   7.1223
     7.1420   7.1498   7.1508   7.1524   7.2498   7.2675   7.2685   7.2730
     7.3598   7.3652   7.3660   7.3663   7.5168   7.6022   7.6075   7.6090
     7.6638   7.8950   7.9498   7.9567   7.9712   7.9837   7.9890   8.0026
     8.2196   8.2371   8.2391   8.2424   8.2452   8.2832   8.3589   8.3642
     8.8873   8.8888   8.8900   8.8910   8.9207   8.9223   8.9233   8.9245
     8.9624   8.9638   8.9650   8.9660   9.1059   9.1101   9.1180   9.1184
     9.3036   9.3240   9.3377   9.3440   9.5128   9.5224   9.5388   9.5435
     9.5615   9.5657   9.5712   9.5723   9.9261   9.9378   9.9668

     the Fermi energy is     3.3207 ev

!    total energy              =  -12707.14301122 Ry
     Harris-Foulkes estimate   =  -12707.14301127 Ry
     estimated scf accuracy    <          5.7E-09 Ry

     The total energy is the sum of the following terms:

     one-electron contribution = -109279.35560797 Ry
     hartree contribution      =   56001.08367128 Ry
     xc contribution           =   -4447.77485955 Ry
     ewald contribution        =   45025.24639857 Ry
     Dispersion Correction     =      -2.98730884 Ry
     smearing contrib. (-TS)   =      -3.35530470 Ry

     convergence has been achieved in  47 iterations

     Writing output data file gc.save

     General routines

     Parallel routines

   This run was terminated on:   0:40: 0   8Sep2017

   JOB DONE.