     Program PWSCF v.5.4.0 starts on 26Apr2017 at 21:33:50

     Current dimensions of program PWSCF are:
     Max number of different atomic species (ntypx) = 10
     Max number of k-points (npk) =  40000
     Max angular momentum in pseudopotentials (lmaxx) =  3

     Parameters for Dispersion Correction:
       atom      VdW radius       C_6

        Cu         2.952        374.666
        C_h        2.744         60.710
        C          2.744         60.710

     bravais-lattice index     =            0
     lattice parameter (alat)  =      13.9425  a.u.
     unit-cell volume          =   21209.0878 (a.u.)^3
     number of atoms/cell      =          149
     number of atomic types    =            3
     number of electrons       =      1296.00
     number of Kohn-Sham states=          778
     kinetic-energy cutoff     =      80.0000  Ry
     charge density cutoff     =     320.0000  Ry
     convergence threshold     =      1.0E-08
     mixing beta               =       0.7000
     number of iterations used =            8  local-TF  mixing
     Exchange-correlation      =  SLA  PW   PBX  PBC ( 1  4  3  4 0 0)

     celldm(1)=  13.942539  celldm(2)=   0.000000  celldm(3)=   0.000000
     celldm(4)=   0.000000  celldm(5)=   0.000000  celldm(6)=   0.000000

     crystal axes: (cart. coord. in units of alat)
               a(1) = (   1.000000   0.000000   0.000000 )
               a(2) = (   0.000000   2.309401   0.000000 )
               a(3) = (   0.000000   0.000000   3.388418 )

     reciprocal axes: (cart. coord. in units 2 pi/alat)
               b(1) = (  1.000000  0.000000  0.000000 )
               b(2) = (  0.000000  0.433013  0.000000 )
               b(3) = (  0.000000  0.000000  0.295123 )

     PseudoPot. # 1 for Cu read from file:
     /home/549/hxw549/Short/pseudopotentials/Cu.pbe-n-van_ak.UPF
     MD5 check sum: 601f7c30f7467666bec936e0661ce3e1
     Pseudo is Ultrasoft + core correction, Zval = 11.0
     Generated by new atomic code, or converted to UPF format
     Using radial grid of  867 points,  6 beta functions with:
                l(1) =   0
                l(2) =   0
                l(3) =   1
                l(4) =   1
                l(5) =   2
                l(6) =   2
     Q(r) pseudized with  8 coefficients,  rinner =    1.400   1.400   1.400
                                                       1.400   1.400

     PseudoPot. # 2 for C  read from file:
     /home/549/hxw549/Short/pseudopotentials/C.star1s-pbe-mt_gipaw.UPF
     MD5 check sum: ef0cb3dee31bd9e4ba2a832a2c716264
     Pseudo is Norm-conserving, Zval =  5.0
     Generated by new atomic code, or converted to UPF format
     Using radial grid of 1073 points,  1 beta functions with:
                l(1) =   0

     PseudoPot. # 3 for C  read from file:
     /home/549/hxw549/Short/pseudopotentials/C.pbe-mt_gipaw.UPF
     MD5 check sum: 5ac2f21f2c440b14befe521540822c15
     Pseudo is Norm-conserving, Zval =  4.0
     Generated by new atomic code, or converted to UPF format
     Using radial grid of 1073 points,  1 beta functions with:
                l(1) =   0

     atomic species   valence    mass     pseudopotential
        Cu            11.00    63.54600     Cu( 1.00)
        C_h            5.00    12.01070     C ( 1.00)
        C              4.00    12.01070     C ( 1.00)

     No symmetry found

   Cartesian axes

     site n.     atom                  positions (alat units)
         1           Cu  tau(   1) = (   0.0110438  -0.0114414   0.9956708  )
         2           Cu  tau(   2) = (   0.2614250   0.2200117   0.9954928  )
         3           Cu  tau(   3) = (   0.5115391  -0.0113269   0.9958217  )
         4           Cu  tau(   4) = (   0.7613891   0.2207663   0.9964136  )
         5           Cu  tau(   5) = (   0.0113943   0.4524409   0.9959458  )
         6           Cu  tau(   6) = (   0.2616259   0.6849598   0.9956623  )
         7           Cu  tau(   7) = (   0.5116233   0.4522664   0.9960070  )
         8           Cu  tau(   8) = (   0.7615468   0.6852408   0.9952534  )
         9           Cu  tau(   9) = (   0.0117907   0.9178219   0.9948203  )
        10           Cu  tau(  10) = (   0.2614792   1.1492807   0.9953844  )
        11           Cu  tau(  11) = (   0.5111147   0.9177905   0.9949121  )
        12           Cu  tau(  12) = (   0.7612765   1.1496612   0.9950202  )
        13           Cu  tau(  13) = (   0.0114254   1.3794539   0.9962709  )
        14           Cu  tau(  14) = (   0.2611847   1.6090776   0.9959988  )
        15           Cu  tau(  15) = (   0.5111112   1.3796813   0.9962249  )
        16           Cu  tau(  16) = (   0.7613800   1.6080727   0.9975318  )
        17           Cu  tau(  17) = (   0.0110525   1.8373497   0.9965526  )
        18           Cu  tau(  18) = (   0.2611022   2.0668146   0.9957100  )
        19           Cu  tau(  19) = (   0.5115353   1.8374206   0.9969094  )
        20           Cu  tau(  20) = (   0.7612623   2.0673174   0.9965234  )
        21           Cu  tau(  21) = (   0.0115865   0.2202931   1.2432999  )
        22           Cu  tau(  22) = (   0.2615067  -0.0113668   1.2436810  )
        23           Cu  tau(  23) = (   0.5121153   0.2200524   1.2432997  )
        24           Cu  tau(  24) = (   0.7615741  -0.0112684   1.2444258  )
        25           Cu  tau(  25) = (   0.0120879   0.6858149   1.2420612  )
        26           Cu  tau(  26) = (   0.2622035   0.4521150   1.2414827  )
        27           Cu  tau(  27) = (   0.5126220   0.6861224   1.2423676  )
        28           Cu  tau(  28) = (   0.7623117   0.4531408   1.2429278  )
        29           Cu  tau(  29) = (   0.0120951   1.1485183   1.2441321  )
        30           Cu  tau(  30) = (   0.2624932   0.9175385   1.2431955  )
        31           Cu  tau(  31) = (   0.5125517   1.1484323   1.2441895  )
        32           Cu  tau(  32) = (   0.7623301   0.9177824   1.2425979  )
        33           Cu  tau(  33) = (   0.0115999   1.6080459   1.2472319  )
        34           Cu  tau(  34) = (   0.2621348   1.3794321   1.2445920  )
        35           Cu  tau(  35) = (   0.5121119   1.6081595   1.2471170  )
        36           Cu  tau(  36) = (   0.7623837   1.3782062   1.2467795  )
        37           Cu  tau(  37) = (   0.0116806   2.0671470   1.2450539  )
        38           Cu  tau(  38) = (   0.2614328   1.8372499   1.2469863  )
        39           Cu  tau(  39) = (   0.5111922   2.0673891   1.2450768  )
        40           Cu  tau(  40) = (   0.7614783   1.8374249   1.2466590  )
        41           Cu  tau(  41) = (   0.0128307  -0.0113442   1.4927939  )
        42           Cu  tau(  42) = (   0.2627512   0.2210169   1.4909223  )
        43           Cu  tau(  43) = (   0.5122958  -0.0110577   1.4931574  )
        44           Cu  tau(  44) = (   0.7631788   0.2207633   1.4920526  )
        45           Cu  tau(  45) = (   0.0124689   0.4535341   1.4903636  )
        46           Cu  tau(  46) = (   0.2635812   0.6826929   1.4881866  )
        47           Cu  tau(  47) = (   0.5140215   0.4526925   1.4895506  )
        48           Cu  tau(  48) = (   0.7640315   0.6855347   1.4916045  )
        49           Cu  tau(  49) = (   0.0126120   0.9168690   1.4920031  )
        50           Cu  tau(  50) = (   0.2638222   1.1502126   1.4921598  )
        51           Cu  tau(  51) = (   0.5157245   0.9171270   1.4923349  )
        52           Cu  tau(  52) = (   0.7644218   1.1466844   1.4959148  )
        53           Cu  tau(  53) = (   0.0130865   1.3767647   1.4974788  )
        54           Cu  tau(  54) = (   0.2628014   1.6062265   1.4983366  )
        55           Cu  tau(  55) = (   0.5142526   1.3775647   1.4966766  )
        56           Cu  tau(  56) = (   0.7633736   1.6077250   1.4987595  )
        57           Cu  tau(  57) = (   0.0129415   1.8379035   1.4973478  )
        58           Cu  tau(  58) = (   0.2624971   2.0681420   1.4960341  )
        59           Cu  tau(  59) = (   0.5119507   1.8377261   1.4973559  )
        60           Cu  tau(  60) = (   0.7624206   2.0676490   1.4954378  )
[...]
       103           C   tau( 103) = (   0.1415161   0.0187037   2.3836317  )
       104           C   tau( 104) = (   0.1412840   0.4036702   2.3835015  )
       105           C   tau( 105) = (   0.3080420   0.1147424   2.3796059  )
       106           C   tau( 106) = (   0.3078839   0.3074059   2.3787516  )
       107           C   tau( 107) = (   0.4750024   0.0187577   2.3785528  )
       108           C   tau( 108) = (   0.4745346   0.4037861   2.3786007  )
       109           C   tau( 109) = (   0.6418476   0.1151567   2.3815264  )
       110           C   tau( 110) = (   0.6415739   0.3077287   2.3816382  )
       111           C   tau( 111) = (   0.8083298   0.0189081   2.3846765  )
       112           C   tau( 112) = (   0.8080686   0.4038635   2.3834607  )
       113           C   tau( 113) = (  -0.0258838   0.6927930   2.3877506  )
       114           C   tau( 114) = (  -0.0265292   0.8858155   2.4001940  )
       115           C   tau( 115) = (   0.1415205   0.5964469   2.3839271  )
       116           C   tau( 116) = (   0.1374721   0.9830981   2.3980172  )
       117           C   tau( 117) = (   0.3071235   0.6906498   2.3737503  )
       118           C_h tau( 118) = (   0.3040917   0.8889408   2.3365195  )
       119           C   tau( 119) = (   0.4733060   0.5967538   2.3774762  )
       120           C   tau( 120) = (   0.4758280   0.9832966   2.3838909  )
       121           C   tau( 121) = (   0.2828792   0.9073881   2.1186454  )
       122           C   tau( 122) = (   0.6408219   0.6930252   2.3798236  )
       123           C   tau( 123) = (   0.6397531   0.8863128   2.3897899  )
       124           C   tau( 124) = (   0.8076329   0.5970442   2.3829098  )
       125           C   tau( 125) = (   0.8065552   0.9816504   2.4042410  )
       126           C   tau( 126) = (  -0.0259380   1.2702329   2.4086560  )
       127           C   tau( 127) = (  -0.0253727   1.4625193   2.4030912  )
       128           C   tau( 128) = (   0.1399779   1.1734188   2.4072885  )
       129           C   tau( 129) = (   0.1414867   1.5585632   2.3987663  )
       130           C   tau( 130) = (   0.3074922   1.2698072   2.4008826  )
       131           C   tau( 131) = (   0.3079543   1.4616740   2.4001619  )
       132           C   tau( 132) = (   0.4746346   1.1732204   2.3987652  )
       133           C   tau( 133) = (   0.4746263   1.5583819   2.3985875  )
       134           C   tau( 134) = (   0.6408832   1.2700059   2.4047221  )
       135           C   tau( 135) = (   0.6410698   1.4623589   2.4027948  )
       136           C   tau( 136) = (   0.8073121   1.1738588   2.4065839  )
       137           C   tau( 137) = (   0.8078605   1.5585484   2.3993779  )
       138           C   tau( 138) = (  -0.0250717   1.8470642   2.3892338  )
       139           C   tau( 139) = (  -0.0250497   2.0395138   2.3882491  )
       140           C   tau( 140) = (   0.1418006   1.7508188   2.3921320  )
       141           C   tau( 141) = (   0.1414553   2.1356069   2.3853820  )
       142           C   tau( 142) = (   0.3083032   1.8470723   2.3891948  )
       143           C   tau( 143) = (   0.3083495   2.0394329   2.3832890  )
       144           C   tau( 144) = (   0.4747878   1.7506911   2.3925533  )
       145           C   tau( 145) = (   0.4750346   2.1356518   2.3814166  )
       146           C   tau( 146) = (   0.6415100   1.8470504   2.3898298  )
       147           C   tau( 147) = (   0.6415905   2.0395151   2.3848099  )
       148           C   tau( 148) = (   0.8080191   1.7508884   2.3921879  )
       149           C   tau( 149) = (   0.8083768   2.1358230   2.3856020  )

     number of k points=     6  gaussian smearing, width (Ry)=  0.1000
                       cart. coord. in units 2pi/alat
        k(    1) = (   0.0000000   0.0000000   0.0000000), wk =   0.2500000
        k(    2) = (   0.0000000  -0.2165064   0.0000000), wk =   0.2500000
        k(    3) = (   0.2500000   0.0000000   0.0000000), wk =   0.5000000
        k(    4) = (   0.2500000  -0.2165064   0.0000000), wk =   0.5000000
        k(    5) = (  -0.5000000   0.0000000   0.0000000), wk =   0.2500000
        k(    6) = (  -0.5000000  -0.2165064   0.0000000), wk =   0.2500000

     Largest allocated arrays     est. size (Mb)     dimensions
     Largest temporary arrays     est. size (Mb)     dimensions

     Initial potential from superposition of free atoms
     Check: negative starting charge=   -0.001820

     starting charge 1270.31751, renormalised to 1296.00000

     negative rho (up, down):  1.857E-03 0.000E+00
     Starting wfc are 1292 randomized atomic wfcs

     Self-consistent Calculation

     iteration #  1     ecut=    80.00 Ry     beta=0.70
     Davidson diagonalization with overlap
     c_bands:  4 eigenvalues not converged
     c_bands:  1 eigenvalues not converged
     c_bands:  2 eigenvalues not converged
     c_bands:  5 eigenvalues not converged
     c_bands:  2 eigenvalues not converged
     c_bands:  1 eigenvalues not converged
     ethr =  1.00E-04,  avg # of iterations = 40.0

     negative rho (up, down):  2.557E+01 0.000E+00

     total energy              =   -9788.33033362 Ry
     Harris-Foulkes estimate   =  -17402.95841769 Ry
     estimated scf accuracy    <  178623.68628606 Ry

     iteration #  2     ecut=    80.00 Ry     beta=0.70
     Davidson diagonalization with overlap
     ethr =  1.00E-02,  avg # of iterations = 11.5

[...]

     iteration # 37     ecut=    80.00 Ry     beta=0.70
     Davidson diagonalization with overlap
     c_bands:  1 eigenvalues not converged
     ethr =  2.40E-08,  avg # of iterations = 13.0

[...]

     total energy              =  -12718.35376822 Ry
     Harris-Foulkes estimate   =  -12718.35376821 Ry
     estimated scf accuracy    <       0.00000001 Ry

     iteration # 45     ecut=    80.00 Ry     beta=0.70
     Davidson diagonalization with overlap
     ethr =  7.93E-13,  avg # of iterations =  2.2

     negative rho (up, down):  2.083E-03 0.000E+00

     End of self-consistent calculation

          k = 0.0000 0.0000 0.0000 (256287 PWs)   bands (ev):

   -17.4201 -16.2159 -16.0145 -15.4462 -14.9732 -14.7224 -14.5709 -14.2345
   -14.1586 -14.0653 -14.0469 -13.4508 -13.2388 -13.0922 -13.0574 -13.0186
   -13.0080 -11.7169 -11.4417 -11.4095 -11.3206 -11.1530 -10.3082  -9.9278
    -9.6320  -9.5311  -9.4687  -9.1209  -8.8847  -8.6263  -8.5900  -8.5344
    -7.9464  -7.8253  -7.6925  -7.5797  -7.5262  -7.4959  -7.4669  -7.4464
    -6.3074  -6.2853  -6.1049  -5.9971  -5.9684  -5.8815  -5.8211  -5.8043
    -5.7744  -5.5041  -5.4785  -5.1261  -4.9574  -4.8172  -4.7567  -4.6311
    -4.5497  -4.4531  -4.3859  -4.3437  -4.1086  -3.9891  -3.9499  -3.9164
    -3.9100  -3.8178  -3.5756  -3.4945  -3.4559  -3.4014  -3.3894  -3.3552
    -3.3474  -3.2519  -3.1352  -3.1167  -3.0990  -3.0098  -3.0090  -2.9988
    -2.9739  -2.9465  -2.8470  -2.7953  -2.7871  -2.7647  -2.7551  -2.7066
    -2.6607  -2.6593  -2.5872  -2.5605  -2.4703  -2.4050  -2.3484  -2.3115
    -2.2813  -2.2077  -2.1868  -2.1772  -2.1720  -2.1522  -2.1479  -2.1444
    -2.1424  -2.0686  -2.0605  -2.0250  -2.0224  -2.0193  -2.0114  -2.0085
    -1.9630  -1.9229  -1.8771  -1.8250  -1.8108  -1.7672  -1.7410  -1.7317
    -1.7120  -1.6977  -1.6700  -1.6566  -1.6490  -1.6420  -1.6323  -1.5982
    -1.5899  -1.5699  -1.5615  -1.5497  -1.5461  -1.5338  -1.5291  -1.5135
    -1.5119  -1.5091  -1.4979  -1.4624  -1.4408  -1.4365  -1.4057  -1.3630
    -1.3470  -1.3343  -1.3271  -1.2978  -1.2947  -1.2559  -1.2538  -1.2437
    -1.2089  -1.2085  -1.1902  -1.1866  -1.1852  -1.1576  -1.1563  -1.1491
    -1.1071  -1.0970  -1.0938  -1.0563  -1.0524  -1.0465  -1.0364  -1.0319
    -1.0296  -1.0191  -1.0155  -1.0132  -1.0118  -1.0006  -0.9982  -0.9836
    -0.9723  -0.9544  -0.9484  -0.9379  -0.9340  -0.9249  -0.9177  -0.9165
    -0.8912  -0.8874  -0.8808  -0.8716  -0.8574  -0.8566  -0.8553  -0.8503
    -0.8479  -0.8466  -0.8458  -0.8451  -0.8438  -0.8415  -0.8378  -0.8364
    -0.8321  -0.8298  -0.7976  -0.7939  -0.7831  -0.7729  -0.7483  -0.6980
    -0.6889  -0.6827  -0.6799  -0.6774  -0.6686  -0.6466  -0.6395  -0.6369
    -0.6338  -0.6265  -0.6252  -0.6221  -0.6064  -0.6006  -0.5935  -0.5776
    -0.5671  -0.5593  -0.5583  -0.5575  -0.5526  -0.5476  -0.5218  -0.5190
    -0.5149  -0.4946  -0.4930  -0.4471  -0.4385  -0.4344  -0.4281  -0.4226
    -0.4204  -0.4088  -0.4047  -0.4025  -0.4016  -0.3999  -0.3961  -0.3941
    -0.3909  -0.3849  -0.3838  -0.3816  -0.3720  -0.3608  -0.3543  -0.3494
    -0.3467  -0.3044  -0.2971  -0.2921  -0.2893  -0.2850  -0.2792  -0.2667
    -0.2614  -0.2599  -0.2563  -0.2544  -0.2524  -0.2395  -0.2379  -0.2318
    -0.2259  -0.2248  -0.2235  -0.2195  -0.2119  -0.2069  -0.2058  -0.2039
    -0.1995  -0.1961  -0.1866  -0.1830  -0.1776  -0.1716  -0.1586  -0.1341
    -0.1259  -0.1229  -0.1153  -0.1019  -0.0960  -0.0824  -0.0741  -0.0649
    -0.0620  -0.0581  -0.0568  -0.0522  -0.0488  -0.0413  -0.0327  -0.0245
    -0.0173  -0.0073  -0.0051  -0.0031   0.0018   0.0087   0.0111   0.0139
     0.0193   0.0214   0.0258   0.0357   0.0406   0.0465   0.0472   0.0508
     0.0525   0.0562   0.0637   0.0646   0.0668   0.0682   0.0792   0.0908
     0.0999   0.1017   0.1085   0.1181   0.1268   0.1360   0.1383   0.1426
     0.1672   0.1818   0.1886   0.1936   0.2154   0.2201   0.2285   0.2342
     0.2382   0.2476   0.2523   0.2554   0.2574   0.2591   0.2648   0.2674
     0.2697   0.2971   0.3067   0.3311   0.3353   0.3411   0.3435   0.3462
     0.3505   0.3675   0.3778   0.3805   0.3851   0.3859   0.3887   0.3960
     0.4076   0.4126   0.4148   0.4224   0.4311   0.4321   0.4442   0.4595
     0.4667   0.4699   0.4778   0.4877   0.4910   0.4946   0.4981   0.5009
     0.5070   0.5115   0.5136   0.5196   0.5303   0.5329   0.5360   0.5395
     0.5404   0.5472   0.5519   0.5555   0.5585   0.5599   0.5649   0.5778
     0.5807   0.5910   0.5973   0.6021   0.6062   0.6073   0.6155   0.6241
     0.6298   0.6331   0.6470   0.6479   0.6491   0.6515   0.6561   0.6593
     0.6700   0.6718   0.6762   0.6851   0.6871   0.6883   0.6903   0.6993
     0.7029   0.7077   0.7092   0.7151   0.7209   0.7223   0.7322   0.7411
     0.7426   0.7464   0.7501   0.7505   0.7519   0.7526   0.7568   0.7573
     0.7669   0.7810   0.7887   0.7979   0.8043   0.8063   0.8136   0.8186
     0.8232   0.8252   0.8306   0.8357   0.8375   0.8487   0.8553   0.8707
     0.8759   0.8814   0.8825   0.8854   0.8873   0.8986   0.9016   0.9104
     0.9160   0.9180   0.9196   0.9281   0.9317   0.9364   0.9386   0.9426
     0.9458   0.9586   0.9670   0.9709   0.9751   0.9801   0.9865   0.9914
[...]
     3.9794   4.0011   4.0046   4.0064   4.0147   4.0248   4.0967   4.1945
     4.1979   4.2487   4.3116   4.3640   4.5127   4.7946   4.8132   4.9559
     4.9710   5.1203   5.1648   5.3082   5.3871   5.4449   5.5808   5.6895
     5.7208   5.8158   5.9324   5.9439   5.9629   6.1591   6.3473   6.4101
     6.4279   6.4545   6.4764   6.4966   6.5219   6.6177   6.6275   6.7576
     6.7721   6.7890   6.8083   6.8105   6.8298   6.8671   7.0026   7.0471
     7.0723   7.0818   7.2332   7.3273   7.3526   7.4092   7.5665   7.5935
     7.5971   7.6556   7.7043   7.7642   7.8352   7.9066   7.9269   8.1103
     8.1242   8.1420   8.2206   8.2632   8.3089   8.3129   8.3218   8.3385
     8.3478   8.3684   8.4308   8.4594   8.4779   8.5609   8.5702   8.6162
     8.6334   8.6545   8.7053   8.7449   8.7792   8.8255   8.8358   8.8380
     8.9549   8.9863   9.0130   9.0586   9.0647   9.1017   9.1152   9.1496
     9.1845   9.2456   9.3231   9.3307   9.3690   9.5099   9.5562   9.5686
     9.5776   9.6212   9.7016   9.7273   9.7579   9.8560   9.9234  10.0027
    10.0490  10.0727

[...]

          k = 0.2500-0.2165 0.0000 (256316 PWs)   bands (ev):

[...]

          k =-0.5000 0.0000 0.0000 (256496 PWs)   bands (ev):

[...]

          k =-0.5000-0.2165 0.0000 (256328 PWs)   bands (ev):

   -17.3446 -15.8748 -15.7755 -15.7554 -15.3601 -15.1411 -15.0932 -15.0430
   -14.0751 -13.7561 -13.6451 -13.6061 -12.7209 -12.3051 -11.9580 -11.9554
   -11.8548 -11.7016 -11.6063 -11.5308 -11.4806 -11.4657 -11.3698 -11.3527
   -10.0561  -9.8986  -9.7346  -9.6806  -9.3044  -9.0416  -8.7417  -8.7245
    -8.6982  -8.1814  -8.1313  -7.9607  -7.9520  -6.4608  -6.2575  -6.0934
    -5.8925  -5.7686  -5.5401  -5.3893  -5.3234  -5.2556  -5.2205  -5.1761
    -5.1756  -5.1618  -5.1173  -4.9815  -4.9662  -4.8832  -4.4989  -4.3485
    -4.3139  -4.2928  -4.2849  -4.2016  -4.2013  -4.1980  -4.1900  -4.1828
    -4.1506  -4.0423  -3.9839  -3.8838  -3.8406  -3.8373  -3.7898  -3.7181
    -3.6888  -3.6299  -3.6226  -3.5637  -3.5547  -3.5386  -3.4765  -3.4404
    -3.4068  -3.1736  -3.0466  -3.0394  -3.0214  -2.6380  -2.6057  -2.6012
    -2.5745  -2.5670  -2.5489  -2.5438  -2.5395  -2.5296  -2.5211  -2.3582
    -2.3288  -2.2845  -2.1919  -2.1572  -2.0917  -2.0821  -2.0680  -2.0506
    -2.0445  -2.0368  -2.0132  -2.0056  -1.9638  -1.9028  -1.8512  -1.7989
    -1.7947  -1.7890  -1.7819  -1.7715  -1.6858  -1.5942  -1.5409  -1.5180
    -1.4942  -1.4903  -1.4865  -1.4842  -1.4798  -1.4742  -1.4715  -1.4544
    -1.4389  -1.4333  -1.4245  -1.4240  -1.4060  -1.4011  -1.3918  -1.3836
    -1.3822  -1.3760  -1.3738  -1.3681  -1.3606  -1.3555  -1.3541  -1.3523
    -1.3455  -1.3235  -1.3175  -1.3021  -1.3003  -1.2992  -1.2806  -1.2707
    -1.2321  -1.2049  -1.1927  -1.1888  -1.1870  -1.1849  -1.1823  -1.1699
    -1.1638  -1.1612  -1.1574  -1.1398  -1.1377  -1.1177  -1.1159  -1.1142
    -1.1107  -1.1096  -1.0965  -1.0910  -1.0864  -1.0845  -1.0601  -1.0543
    -1.0474  -1.0464  -1.0427  -1.0411  -1.0391  -1.0348  -1.0328  -1.0305
    -1.0291  -1.0259  -1.0249  -0.9848  -0.9758  -0.9547  -0.9333  -0.9205
    -0.8775  -0.8529  -0.8522  -0.8513  -0.8476  -0.8346  -0.8333  -0.8252
    -0.7879  -0.7775  -0.7704  -0.7663  -0.7644  -0.7633  -0.7595  -0.7568
    -0.7511  -0.7258  -0.7061  -0.7002  -0.6965  -0.6956  -0.6918  -0.6910
    -0.6829  -0.6799  -0.6753  -0.6722  -0.6592  -0.6473  -0.6117  -0.5841
    -0.5804  -0.5741  -0.5664  -0.5609  -0.5601  -0.5471  -0.5190  -0.5120
    -0.5039  -0.4978  -0.4822  -0.4774  -0.4698  -0.4517  -0.4502  -0.4457
    -0.4446  -0.4283  -0.4265  -0.4221  -0.4058  -0.4026  -0.3992  -0.3977
    -0.3920  -0.3872  -0.3775  -0.3605  -0.3539  -0.3423  -0.3137  -0.2920
    -0.2849  -0.2724  -0.2714  -0.2626  -0.2589  -0.2554  -0.2516  -0.2499
    -0.2398  -0.2362  -0.2337  -0.2071  -0.1773  -0.1694  -0.1677  -0.1654
    -0.1612  -0.1548  -0.1517  -0.1503  -0.1452  -0.1428  -0.1392  -0.1212
    -0.1164  -0.1098  -0.1080  -0.1070  -0.1047  -0.1022  -0.0999  -0.0964
    -0.0947  -0.0869  -0.0853  -0.0651  -0.0618  -0.0456  -0.0393  -0.0343
    -0.0219  -0.0090  -0.0060  -0.0009   0.0105   0.0197   0.0300   0.0560
     0.0607   0.0645   0.0701   0.0756   0.0772   0.0782   0.0800   0.0833
     0.0849   0.0865   0.0888   0.0901   0.0932   0.0972   0.0987   0.0996
     0.1020   0.1054   0.1114   0.1138   0.1193   0.1209   0.1238   0.1283
     0.1302   0.1338   0.1365   0.1418   0.1477   0.1490   0.1587   0.1607
     0.1649   0.1681   0.1696   0.2045   0.2072   0.2123   0.2171   0.2292
     0.2377   0.2431   0.2463   0.2501   0.2718   0.2809   0.3105   0.3154
     0.3237   0.3245   0.3290   0.3315   0.3351   0.3371   0.3433   0.3434
     0.3486   0.3496   0.3570   0.3608   0.3619   0.3660   0.3672   0.3702
     0.3745   0.3760   0.3777   0.3832   0.3870   0.3943   0.3970   0.4004
     0.4074   0.4123   0.4232   0.4247   0.4279   0.4353   0.4391   0.4462
     0.4665   0.4679   0.4705   0.4715   0.4753   0.4822   0.4868   0.4916
     0.4959   0.5006   0.5123   0.5161   0.5182   0.5263   0.5310   0.5352
     0.5391   0.5500   0.5533   0.5544   0.5618   0.5668   0.5718   0.5720
     0.5728   0.5735   0.5751   0.5779   0.5810   0.5835   0.5861   0.5872
     0.5912   0.5982   0.6045   0.6061   0.6226   0.6329   0.6489   0.6646
     0.6704   0.6709   0.6763   0.6803   0.6847   0.6876   0.6889   0.6900
     0.6937   0.7017   0.7073   0.7152   0.7173   0.7178   0.7204   0.7237
     0.7295   0.7318   0.7333   0.7340   0.7510   0.7598   0.7643   0.7718
     0.7822   0.7849   0.7917   0.8001   0.8088   0.8101   0.8146   0.8206
     0.8303   0.8347   0.8434   0.8463   0.8519   0.8556   0.8617   0.8670
     0.8752   0.8782   0.8830   0.9143   0.9246   0.9257   0.9281   0.9358
     0.9414   0.9473   0.9523   0.9640   0.9888   0.9920   0.9980   1.0037
[...]
     4.3217   4.3549   4.3744   4.4044   4.5441   4.5551   4.5895   4.5947
     4.6492   4.6790   4.7658   4.8648   4.9005   4.9227   4.9516   5.0273
     5.0631   5.0950   5.1110   5.1612   5.1660   5.1959   5.2455   5.2740
     5.2853   5.2962   5.3348   5.3443   5.4905   5.5978   5.6578   5.6708
     5.7267   5.7426   5.7524   5.7549   5.7609   5.7761   5.8284   5.8944
     5.9566   6.0610   6.7345   6.7624   6.8035   6.8168   6.8571   6.9487
     7.1051   7.1165   7.1281   7.1428   7.1510   7.1886   7.2078   7.2608
     7.2955   7.3229   7.3421   7.3655   7.3769   7.4042   7.4521   7.5440
     7.5887   7.7687   7.8076   7.8922   7.9338   7.9741   7.9881   8.0353
     8.1476   8.1646   8.2143   8.2341   8.2394   8.3790   8.4043   8.4113
     8.4506   8.5805   8.6981   8.7781   8.8620   8.8837   8.8998   8.9235
     8.9314   8.9350   8.9443   8.9653   9.0064   9.0591   9.1157   9.1358
     9.1380   9.1528   9.1764   9.2561   9.4002   9.4062   9.4129   9.4308
     9.5071   9.5444   9.5560   9.5612   9.6113   9.6247   9.6703   9.7668
     9.8208   9.9212

     the Fermi energy is     3.3243 ev

!    total energy              =  -12718.35376823 Ry
     Harris-Foulkes estimate   =  -12718.35376822 Ry
     estimated scf accuracy    <          4.4E-09 Ry

     The total energy is the sum of the following terms:

     one-electron contribution = -109437.99743039 Ry
     hartree contribution      =   56082.11683376 Ry
     xc contribution           =   -4451.04791137 Ry
     ewald contribution        =   45094.94259420 Ry
     Dispersion Correction     =      -3.00636478 Ry
     smearing contrib. (-TS)   =      -3.36148965 Ry

     convergence has been achieved in  45 iterations

     Writing output data file gc.save

     General routines

     Parallel routines

   This run was terminated on:   1:16:37  27Apr2017

   JOB DONE.