     Program PWSCF v.5.4.0 starts on  1May2017 at  8:48:21

     Current dimensions of program PWSCF are:
     Max number of different atomic species (ntypx) = 10
     Max number of k-points (npk) =  40000
     Max angular momentum in pseudopotentials (lmaxx) =  3

     Parameters for Dispersion Correction:
       atom      VdW radius       C_6

        Cu         2.952        374.666
        C_h        2.744         60.710
        C          2.744         60.710
        H          1.892          4.857

     bravais-lattice index     =            0
     lattice parameter (alat)  =      13.9425  a.u.
     unit-cell volume          =   21209.0878 (a.u.)^3
     number of atoms/cell      =          150
     number of atomic types    =            4
     number of electrons       =      1294.00
     number of Kohn-Sham states=          776
     kinetic-energy cutoff     =      80.0000  Ry
     charge density cutoff     =     320.0000  Ry
     convergence threshold     =      1.0E-08
     mixing beta               =       0.7000
     number of iterations used =            8  local-TF  mixing
     Exchange-correlation      =  SLA  PW   PBE  PBE ( 1  4  3  4 0 0)

     celldm(1)=  13.942539  celldm(2)=   0.000000  celldm(3)=   0.000000
     celldm(4)=   0.000000  celldm(5)=   0.000000  celldm(6)=   0.000000

     crystal axes: (cart. coord. in units of alat)
               a(1) = (   1.000000   0.000000   0.000000 )
               a(2) = (   0.000000   2.309401   0.000000 )
               a(3) = (   0.000000   0.000000   3.388418 )

     reciprocal axes: (cart. coord. in units 2 pi/alat)
               b(1) = (  1.000000  0.000000  0.000000 )
               b(2) = (  0.000000  0.433013  0.000000 )
               b(3) = (  0.000000  0.000000  0.295123 )

     PseudoPot. # 1 for Cu read from file:
     /home/549/hxw549/Short/pseudopotentials/Cu.pbe-n-van_ak.UPF
     MD5 check sum: 601f7c30f7467666bec936e0661ce3e1
     Pseudo is Ultrasoft + core correction, Zval = 11.0
     Generated by new atomic code, or converted to UPF format
     Using radial grid of  867 points,  6 beta functions with:
                l(1) =   0
                l(2) =   0
                l(3) =   1
                l(4) =   1
                l(5) =   2
                l(6) =   2
     Q(r) pseudized with  8 coefficients,  rinner =    1.400   1.400   1.400
                                                       1.400   1.400

     PseudoPot. # 2 for C  read from file:
     /home/549/hxw549/Short/pseudopotentials/C.star1s-pbe-mt_gipaw.UPF
     MD5 check sum: ef0cb3dee31bd9e4ba2a832a2c716264
     Pseudo is Norm-conserving, Zval =  5.0
     Generated by new atomic code, or converted to UPF format
     Using radial grid of 1073 points,  1 beta functions with:
                l(1) =   0

     PseudoPot. # 3 for C  read from file:
     /home/549/hxw549/Short/pseudopotentials/C.pbe-mt_gipaw.UPF
     MD5 check sum: 5ac2f21f2c440b14befe521540822c15
     Pseudo is Norm-conserving, Zval =  4.0
     Generated by new atomic code, or converted to UPF format
     Using radial grid of 1073 points,  1 beta functions with:
                l(1) =   0

     PseudoPot. # 4 for H  read from file:
     /home/549/hxw549/Short/pseudopotentials/H.pbe-van_ak.UPF
     MD5 check sum: 077eb6d537518a38cb46c6de387227b7
     Pseudo is Ultrasoft, Zval =  1.0
     Generated by new atomic code, or converted to UPF format
     Using radial grid of  615 points,  1 beta functions with:
                l(1) =   0
     Q(r) pseudized with  8 coefficients,  rinner =    0.800

     atomic species   valence    mass     pseudopotential
        Cu            11.00    63.54600     Cu( 1.00)
        C_h            5.00    12.01070     C ( 1.00)
        C              4.00    12.01070     C ( 1.00)
        H              1.00     1.00783     H ( 1.00)

     No symmetry found

   Cartesian axes

     site n.     atom                  positions (alat units)
         1           Cu  tau(   1) = (   0.0000919   0.0002316   0.9987459  )
         2           Cu  tau(   2) = (   0.2500608   0.2313422   0.9986560  )
         3           Cu  tau(   3) = (   0.5000559   0.0002569   0.9986982  )
         4           Cu  tau(   4) = (   0.7500949   0.2314102   0.9988092  )
         5           Cu  tau(   5) = (   0.0000733   0.4621721   0.9985440  )
         6           Cu  tau(   6) = (   0.2500962   0.6929017   0.9981624  )
         7           Cu  tau(   7) = (   0.5000988   0.4621718   0.9985475  )
         8           Cu  tau(   8) = (   0.7500930   0.6928823   0.9982088  )
         9           Cu  tau(   9) = (   0.0000822   0.9236183   0.9979416  )
        10           Cu  tau(  10) = (   0.2501215   1.1543049   0.9981078  )
        11           Cu  tau(  11) = (   0.5001082   0.9236142   0.9979840  )
        12           Cu  tau(  12) = (   0.7500653   1.1542869   0.9981949  )
        13           Cu  tau(  13) = (   0.0000921   1.3848839   0.9985403  )
        14           Cu  tau(  14) = (   0.2500884   1.6154746   0.9989221  )
        15           Cu  tau(  15) = (   0.5000855   1.3848573   0.9987145  )
        16           Cu  tau(  16) = (   0.7500809   1.6155229   0.9989338  )
        17           Cu  tau(  17) = (   0.0001056   1.8465206   0.9988634  )
        18           Cu  tau(  18) = (   0.2500826   2.0781047   0.9988097  )
        19           Cu  tau(  19) = (   0.5000543   1.8465227   0.9988342  )
        20           Cu  tau(  20) = (   0.7500690   2.0780250   0.9985623  )
        21           Cu  tau(  21) = (   0.0001558   0.2316251   1.2472335  )
        22           Cu  tau(  22) = (   0.2500763   0.0004221   1.2468628  )
        23           Cu  tau(  23) = (   0.5000595   0.2316031   1.2471440  )
        24           Cu  tau(  24) = (   0.7501210   0.0000719   1.2464898  )
        25           Cu  tau(  25) = (   0.0001786   0.6932610   1.2468641  )
        26           Cu  tau(  26) = (   0.2501143   0.4625386   1.2470684  )
        27           Cu  tau(  27) = (   0.5001345   0.6932158   1.2468571  )
        28           Cu  tau(  28) = (   0.7501458   0.4626033   1.2472386  )
        29           Cu  tau(  29) = (   0.0002022   1.1538536   1.2469961  )
        30           Cu  tau(  30) = (   0.2501511   0.9236315   1.2467472  )
        31           Cu  tau(  31) = (   0.5000991   1.1537473   1.2471984  )
        32           Cu  tau(  32) = (   0.7501581   0.9235895   1.2467964  )
        33           Cu  tau(  33) = (   0.0001614   1.6150823   1.2474850  )
        34           Cu  tau(  34) = (   0.2501328   1.3841450   1.2476041  )
        35           Cu  tau(  35) = (   0.5000748   1.6152235   1.2474914  )
        36           Cu  tau(  36) = (   0.7501317   1.3842908   1.2474566  )
        37           Cu  tau(  37) = (   0.0001775   2.0780482   1.2464335  )
        38           Cu  tau(  38) = (   0.2500819   1.8464294   1.2469514  )
        39           Cu  tau(  39) = (   0.5000260   2.0780571   1.2463402  )
        40           Cu  tau(  40) = (   0.7501350   1.8466074   1.2468146  )
        41           Cu  tau(  41) = (   0.0002946  -0.0001701   1.4956456  )
        42           Cu  tau(  42) = (   0.2501863   0.2321383   1.4969122  )
        43           Cu  tau(  43) = (   0.4999891  -0.0002208   1.4954507  )
        44           Cu  tau(  44) = (   0.7501747   0.2312501   1.4958839  )
        45           Cu  tau(  45) = (   0.0004356   0.4632209   1.4970349  )
        46           Cu  tau(  46) = (   0.2503312   0.6936162   1.4971319  )
        47           Cu  tau(  47) = (   0.5000865   0.4631679   1.4969599  )
        48           Cu  tau(  48) = (   0.7504028   0.6936701   1.4970478  )
        49           Cu  tau(  49) = (   0.0005039   0.9234888   1.4974851  )
        50           Cu  tau(  50) = (   0.2502472   1.1526190   1.4982066  )
        51           Cu  tau(  51) = (   0.5002313   0.9231018   1.4975484  )
        52           Cu  tau(  52) = (   0.7504336   1.1530786   1.4974338  )
        53           Cu  tau(  53) = (   0.0004108   1.3833185   1.4976842  )
        54           Cu  tau(  54) = (   0.2500898   1.6148558   1.4969539  )
        55           Cu  tau(  55) = (   0.5000969   1.3834757   1.4974071  )
        56           Cu  tau(  56) = (   0.7502866   1.6151345   1.4965213  )
        57           Cu  tau(  57) = (   0.0001917   1.8466826   1.4959292  )
        58           Cu  tau(  58) = (   0.2500956   2.0780177   1.4954864  )
        59           Cu  tau(  59) = (   0.5001167   1.8469305   1.4958586  )
        60           Cu  tau(  60) = (   0.7501829   2.0780930   1.4954862  )
[...]
       106           C   tau( 106) = (   0.3329334   0.2892900   2.3754856  )
       107           C   tau( 107) = (   0.4997646   0.0009528   2.3837108  )
       108           C   tau( 108) = (   0.4996309   0.3858570   2.3733910  )
       109           C   tau( 109) = (   0.6666229   0.0973194   2.3827700  )
       110           C   tau( 110) = (   0.6667266   0.2896695   2.3769746  )
       111           C   tau( 111) = (   0.8330509   0.0011811   2.3869992  )
       112           C   tau( 112) = (   0.8333458   0.3859084   2.3781081  )
       113           C   tau( 113) = (  -0.0003680   0.6746180   2.3800255  )
       114           C   tau( 114) = (  -0.0004064   0.8679568   2.3724861  )
       115           C   tau( 115) = (   0.1668760   0.5778132   2.3777557  )
       116           C   tau( 116) = (   0.1634612   0.9654252   2.3879310  )
       117           C   tau( 117) = (   0.3328709   0.6722646   2.3863051  )
       118           C   tau( 118) = (   0.3249077   0.8629165   2.4553160  )
       119           H   tau( 119) = (   0.2898117   0.8427006   2.6008827  )
       120           C   tau( 120) = (   0.4987120   0.5783926   2.3806943  )
       121           C_h tau( 121) = (   0.5061247   0.9664464   2.4580165  )
       122           H   tau( 122) = (   0.5407479   0.9796419   2.6045574  )
       123           C   tau( 123) = (   0.6665974   0.6755722   2.3805660  )
       124           C   tau( 124) = (   0.6673444   0.8659745   2.3861427  )
       125           C   tau( 125) = (   0.8336502   0.5787306   2.3768762  )
       126           C   tau( 126) = (   0.8312723   0.9631555   2.3738225  )
       127           C   tau( 127) = (  -0.0019716   1.2521495   2.3750160  )
       128           C   tau( 128) = (  -0.0013290   1.4449106   2.3729733  )
       129           C   tau( 129) = (   0.1648442   1.1554723   2.3838475  )
       130           C   tau( 130) = (   0.1656843   1.5411912   2.3777721  )
       131           C   tau( 131) = (   0.3330998   1.2527319   2.3892415  )
       132           C   tau( 132) = (   0.3324059   1.4451862   2.3817547  )
       133           C   tau( 133) = (   0.4984958   1.1595819   2.3974132  )
       134           C   tau( 134) = (   0.4987093   1.5415794   2.3828062  )
       135           C   tau( 135) = (   0.6639257   1.2531325   2.3818526  )
       136           C   tau( 136) = (   0.6649916   1.4456716   2.3776727  )
       137           C   tau( 137) = (   0.8315532   1.1563045   2.3783396  )
       138           C   tau( 138) = (   0.8319314   1.5413832   2.3751799  )
       139           C   tau( 139) = (  -0.0008312   1.8298647   2.3821881  )
       140           C   tau( 140) = (  -0.0005462   2.0221493   2.3876639  )
       141           C   tau( 141) = (   0.1659842   1.7335119   2.3822565  )
       142           C   tau( 142) = (   0.1661351   2.1182255   2.3880502  )
       143           C   tau( 143) = (   0.3325355   1.8297460   2.3874497  )
       144           C   tau( 144) = (   0.3328591   2.0220360   2.3885517  )
       145           C   tau( 145) = (   0.4990294   1.7338454   2.3860481  )
       146           C   tau( 146) = (   0.4995744   2.1180647   2.3887952  )
       147           C   tau( 147) = (   0.6657974   1.8297375   2.3866810  )
       148           C   tau( 148) = (   0.6660566   2.0220263   2.3886619  )
       149           C   tau( 149) = (   0.8322308   1.7336756   2.3810465  )
       150           C   tau( 150) = (   0.8329133   2.1182503   2.3883294  )

     number of k points=     6  gaussian smearing, width (Ry)=  0.1000
                       cart. coord. in units 2pi/alat
        k(    1) = (   0.0000000   0.0000000   0.0000000), wk =   0.2500000
        k(    2) = (   0.0000000  -0.2165064   0.0000000), wk =   0.2500000
        k(    3) = (   0.2500000   0.0000000   0.0000000), wk =   0.5000000
        k(    4) = (   0.2500000  -0.2165064   0.0000000), wk =   0.5000000
        k(    5) = (  -0.5000000   0.0000000   0.0000000), wk =   0.2500000
        k(    6) = (  -0.5000000  -0.2165064   0.0000000), wk =   0.2500000

     Largest allocated arrays     est. size (Mb)     dimensions
     Largest temporary arrays     est. size (Mb)     dimensions

     Initial potential from superposition of free atoms
     Check: negative starting charge=   -0.001837

     starting charge 1268.81749, renormalised to 1294.00000

     negative rho (up, down):  1.874E-03 0.000E+00
     Starting wfc are 1286 randomized atomic wfcs

     Self-consistent Calculation

     iteration #  1     ecut=    80.00 Ry     beta=0.70
     Davidson diagonalization with overlap
     c_bands:  1 eigenvalues not converged
     c_bands:  1 eigenvalues not converged
     ethr =  1.00E-04,  avg # of iterations = 37.8

     negative rho (up, down):  2.445E+01 0.000E+00

     total energy              =   -9727.90570951 Ry
     Harris-Foulkes estimate   =  -17301.00376173 Ry
     estimated scf accuracy    <  179761.99580393 Ry

     iteration #  2     ecut=    80.00 Ry     beta=0.70
     Davidson diagonalization with overlap
     ethr =  1.00E-02,  avg # of iterations = 11.3

[...]

     iteration # 40     ecut=    80.00 Ry     beta=0.70
     Davidson diagonalization with overlap
     c_bands:  1 eigenvalues not converged
     ethr =  5.30E-09,  avg # of iterations = 11.8

[...]

     total energy              =  -12709.31730086 Ry
     Harris-Foulkes estimate   =  -12709.31730091 Ry
     estimated scf accuracy    <       0.00000003 Ry

     iteration # 47     ecut=    80.00 Ry     beta=0.70
     Davidson diagonalization with overlap
     ethr =  2.56E-12,  avg # of iterations =  2.5

     negative rho (up, down):  1.989E-03 0.000E+00

     End of self-consistent calculation

          k = 0.0000 0.0000 0.0000 (256287 PWs)   bands (ev):

   -17.5572 -16.1569 -16.0006 -15.4703 -14.9553 -14.7460 -14.6422 -14.1700
   -14.1129 -14.0439 -14.0310 -13.4593 -13.2237 -13.0847 -13.0366 -12.9890
   -12.9802 -11.7145 -11.4694 -11.4092 -11.2928 -11.1240 -10.3554  -9.8341
    -9.7699  -9.5473  -9.4309  -8.8875  -8.8128  -8.5796  -8.5047  -8.0386
    -7.9369  -7.7963  -7.6366  -7.5182  -7.4703  -7.4401  -7.4300  -7.3167
    -6.3438  -6.2603  -6.1192  -5.9191  -5.8865  -5.8643  -5.8046  -5.7830
    -5.7211  -5.3574  -5.3505  -4.9962  -4.8348  -4.7834  -4.7508  -4.5481
    -4.4669  -4.4339  -4.3137  -4.1401  -4.0326  -3.9400  -3.8623  -3.8588
    -3.7916  -3.7163  -3.5481  -3.4641  -3.4285  -3.3302  -3.3084  -3.2760
    -3.2709  -3.1148  -3.0935  -3.0412  -2.9993  -2.9267  -2.8787  -2.8768
    -2.8729  -2.8718  -2.7676  -2.7423  -2.7006  -2.6719  -2.6218  -2.6126
    -2.6033  -2.5738  -2.5205  -2.4682  -2.2826  -2.2755  -2.2171  -2.2156
    -2.1472  -2.1262  -2.1058  -2.0616  -2.0604  -2.0219  -2.0215  -2.0210
    -2.0201  -1.9922  -1.9826  -1.9246  -1.8939  -1.8929  -1.8881  -1.8876
    -1.8288  -1.7840  -1.7160  -1.7046  -1.6464  -1.6127  -1.6084  -1.6083
    -1.6055  -1.5560  -1.5467  -1.5421  -1.5288  -1.5233  -1.4952  -1.4676
    -1.4602  -1.4415  -1.4346  -1.4331  -1.4276  -1.4058  -1.4027  -1.3859
    -1.3845  -1.3830  -1.3585  -1.3082  -1.3035  -1.2920  -1.2856  -1.2629
    -1.2391  -1.2226  -1.2164  -1.1905  -1.1687  -1.1340  -1.1328  -1.1201
    -1.0824  -1.0798  -1.0620  -1.0587  -1.0467  -1.0415  -1.0355  -1.0331
    -0.9993  -0.9875  -0.9320  -0.9211  -0.9157  -0.9143  -0.9072  -0.8948
    -0.8934  -0.8924  -0.8917  -0.8889  -0.8874  -0.8849  -0.8798  -0.8713
    -0.8686  -0.8444  -0.8223  -0.8113  -0.8031  -0.7989  -0.7904  -0.7892
    -0.7865  -0.7717  -0.7309  -0.7299  -0.7271  -0.7263  -0.7256  -0.7252
    -0.7246  -0.7223  -0.7210  -0.7192  -0.7183  -0.7170  -0.7150  -0.7138
    -0.7115  -0.7107  -0.6986  -0.6979  -0.6751  -0.6548  -0.5920  -0.5608
    -0.5596  -0.5530  -0.5527  -0.5332  -0.5314  -0.5123  -0.5116  -0.4945
    -0.4901  -0.4856  -0.4803  -0.4696  -0.4684  -0.4591  -0.4371  -0.4354
    -0.4303  -0.4297  -0.4248  -0.4243  -0.4139  -0.4129  -0.4028  -0.3636
    -0.3621  -0.3093  -0.3091  -0.3007  -0.2989  -0.2950  -0.2936  -0.2834
    -0.2805  -0.2767  -0.2753  -0.2741  -0.2731  -0.2708  -0.2696  -0.2635
    -0.2553  -0.2550  -0.2492  -0.2468  -0.2263  -0.2210  -0.2207  -0.1733
    -0.1699  -0.1673  -0.1616  -0.1615  -0.1371  -0.1370  -0.1354  -0.1326
    -0.1295  -0.1197  -0.1157  -0.1122  -0.1120  -0.1041  -0.0926  -0.0915
    -0.0877  -0.0872  -0.0850  -0.0839  -0.0822  -0.0815  -0.0800  -0.0783
    -0.0619  -0.0609  -0.0579  -0.0567  -0.0360  -0.0171   0.0041   0.0092
     0.0104   0.0117   0.0124   0.0368   0.0499   0.0546   0.0604   0.0610
     0.0622   0.0666   0.0673   0.0682   0.0701   0.0730   0.0846   0.1087
     0.1164   0.1206   0.1243   0.1264   0.1300   0.1477   0.1480   0.1523
     0.1530   0.1602   0.1635   0.1724   0.1750   0.1758   0.1768   0.1821
     0.1835   0.1922   0.1923   0.1938   0.1941   0.2027   0.2042   0.2131
     0.2204   0.2331   0.2357   0.2649   0.2655   0.2913   0.2927   0.3017
     0.3157   0.3279   0.3340   0.3609   0.3618   0.3624   0.3742   0.3751
     0.3772   0.3975   0.3992   0.4013   0.4022   0.4047   0.4081   0.4107
     0.4132   0.4587   0.4693   0.4706   0.4744   0.4769   0.4790   0.4815
     0.5049   0.5064   0.5118   0.5130   0.5144   0.5206   0.5431   0.5454
     0.5478   0.5565   0.5619   0.5689   0.5702   0.5725   0.5919   0.6086
     0.6146   0.6220   0.6238   0.6269   0.6305   0.6309   0.6377   0.6498
     0.6564   0.6575   0.6616   0.6636   0.6638   0.6663   0.6679   0.6718
     0.6743   0.6787   0.6836   0.6851   0.6882   0.6908   0.6950   0.6963
     0.7268   0.7325   0.7346   0.7348   0.7532   0.7723   0.7752   0.7768
     0.7793   0.7827   0.7838   0.7844   0.7849   0.7878   0.7932   0.7992
     0.8044   0.8066   0.8092   0.8114   0.8164   0.8167   0.8200   0.8271
     0.8302   0.8478   0.8493   0.8524   0.8554   0.8590   0.8616   0.8661
     0.8708   0.8774   0.8775   0.8776   0.8825   0.8840   0.8847   0.8881
     0.8921   0.8964   0.9345   0.9353   0.9460   0.9489   0.9502   0.9510
     0.9540   0.9550   0.9808   0.9846   0.9912   0.9988   1.0055   1.0060
     1.0072   1.0189   1.0193   1.0283   1.0286   1.0303   1.0320   1.0385
     1.0485   1.0659   1.0679   1.0691   1.0695   1.0722   1.0738   1.0881
     1.0948   1.0997   1.1070   1.1146   1.1153   1.1274   1.1311   1.1344
[...]
     3.9737   3.9837   3.9881   3.9941   4.0448   4.0614   4.0941   4.1338
     4.1373   4.1398   4.1413   4.1451   4.1524   4.1535   4.2873   4.3812
     4.3970   4.3998   4.4575   4.6323   4.6644   4.8979   4.9141   4.9607
     5.4095   5.4359   5.4593   5.5769   5.6266   5.7286   5.8438   5.8572
     5.8775   5.8960   6.0628   6.0668   6.3381   6.4232   6.4984   6.5244
     6.5425   6.5964   6.6026   6.6277   6.6460   6.6677   6.6802   6.7365
     6.8118   6.8651   6.8865   6.9013   6.9217   7.1193   7.1478   7.1793
     7.1975   7.2237   7.2350   7.4684   7.4890   7.5207   7.6376   7.6649
     7.7651   7.8017   7.8175   7.8375   7.8384   7.8446   8.0158   8.2139
     8.2516   8.2984   8.3153   8.3507   8.4086   8.4555   8.4646   8.4684
     8.4771   8.5154   8.5334   8.5518   8.5608   8.6234   8.6597   8.7079
     8.7941   8.7961   8.8003   8.8122   8.8382   8.8451   8.9270   8.9673
     8.9699   8.9774   8.9881   9.0465   9.0923   9.1793   9.2154   9.2451
     9.2524   9.2557   9.3026   9.3330   9.3701   9.3993   9.4290   9.4808
     9.4839   9.5252   9.5536   9.5751   9.7075   9.7125   9.9606  10.0470

[...]

          k = 0.2500-0.2165 0.0000 (256316 PWs)   bands (ev):

[...]

          k =-0.5000 0.0000 0.0000 (256496 PWs)   bands (ev):

[...]

          k =-0.5000-0.2165 0.0000 (256328 PWs)   bands (ev):

   -17.4903 -15.9190 -15.7251 -15.6958 -15.3470 -15.1240 -15.0742 -15.0143
   -14.0919 -13.7460 -13.6300 -13.5803 -12.7854 -12.4480 -11.9224 -11.9055
   -11.8750 -11.6687 -11.6030 -11.4985 -11.4610 -11.4496 -11.3226 -11.3009
   -10.0118  -9.9438  -9.6925  -9.6439  -9.1834  -8.9556  -8.7236  -8.6618
    -8.2857  -8.2231  -7.9435  -7.9008  -7.5887  -6.5602  -6.2989  -6.1162
    -5.8439  -5.7969  -5.6229  -5.3552  -5.2353  -5.1968  -5.1458  -5.0550
    -5.0532  -5.0509  -5.0411  -4.9273  -4.9104  -4.6264  -4.4646  -4.2894
    -4.2543  -4.2236  -4.1838  -4.1660  -4.1176  -4.0774  -4.0708  -4.0700
    -4.0576  -4.0446  -3.9824  -3.8486  -3.7431  -3.7392  -3.7228  -3.6524
    -3.6484  -3.6064  -3.5945  -3.4949  -3.4825  -3.4217  -3.3746  -3.3356
    -3.2021  -3.1029  -2.9587  -2.9486  -2.8259  -2.6371  -2.5692  -2.4885
    -2.4504  -2.4493  -2.4481  -2.4424  -2.3939  -2.3883  -2.3830  -2.3265
    -2.2732  -2.2532  -2.0668  -2.0047  -1.9801  -1.9737  -1.9571  -1.9545
    -1.9451  -1.9248  -1.8843  -1.8773  -1.8731  -1.8542  -1.6768  -1.6738
    -1.6718  -1.6663  -1.6463  -1.6316  -1.5423  -1.4730  -1.3943  -1.3865
    -1.3641  -1.3635  -1.3625  -1.3623  -1.3389  -1.3330  -1.3255  -1.3236
    -1.3129  -1.3050  -1.3032  -1.3026  -1.3009  -1.2584  -1.2569  -1.2566
    -1.2554  -1.2546  -1.2539  -1.2519  -1.2474  -1.2396  -1.2291  -1.2287
    -1.2272  -1.2265  -1.1807  -1.1779  -1.1770  -1.1754  -1.1272  -1.1043
    -1.0994  -1.0984  -1.0624  -1.0612  -1.0602  -1.0596  -1.0557  -1.0444
    -1.0419  -1.0400  -1.0287  -1.0071  -0.9921  -0.9913  -0.9906  -0.9897
    -0.9865  -0.9861  -0.9850  -0.9845  -0.9653  -0.9561  -0.9492  -0.9378
    -0.9320  -0.9313  -0.9238  -0.9194  -0.9147  -0.9141  -0.9101  -0.9078
    -0.9066  -0.9060  -0.9052  -0.9019  -0.8958  -0.7771  -0.7574  -0.7548
    -0.7540  -0.7489  -0.7234  -0.7224  -0.7220  -0.7213  -0.6449  -0.6436
    -0.6415  -0.6403  -0.6354  -0.6338  -0.6332  -0.6331  -0.6317  -0.6298
    -0.6266  -0.5970  -0.5712  -0.5707  -0.5682  -0.5662  -0.5637  -0.5609
    -0.5598  -0.5522  -0.5416  -0.5380  -0.5355  -0.5282  -0.4526  -0.4489
    -0.4458  -0.4454  -0.4415  -0.4390  -0.4352  -0.4187  -0.3715  -0.3702
    -0.3680  -0.3660  -0.3213  -0.3202  -0.3187  -0.3182  -0.3006  -0.3005
    -0.2984  -0.2971  -0.2764  -0.2753  -0.2711  -0.2649  -0.2614  -0.2610
    -0.2587  -0.2582  -0.2292  -0.2249  -0.2227  -0.2075  -0.1475  -0.1467
    -0.1422  -0.1408  -0.1282  -0.1278  -0.1266  -0.1262  -0.1122  -0.1117
    -0.1112  -0.1095  -0.0306  -0.0296  -0.0286  -0.0271  -0.0264  -0.0251
    -0.0232  -0.0227  -0.0218  -0.0202  -0.0189  -0.0176   0.0163   0.0164
     0.0167   0.0177   0.0274   0.0278   0.0283   0.0292   0.0324   0.0337
     0.0362   0.0370   0.1003   0.1007   0.1027   0.1036   0.1186   0.1251
     0.1276   0.1308   0.1463   0.1575   0.1665   0.1795   0.1829   0.1847
     0.1951   0.1955   0.2063   0.2091   0.2092   0.2100   0.2139   0.2146
     0.2173   0.2188   0.2202   0.2220   0.2234   0.2281   0.2298   0.2309
     0.2326   0.2349   0.2352   0.2365   0.2369   0.2462   0.2511   0.2523
     0.2533   0.2539   0.2792   0.2796   0.2799   0.2803   0.2873   0.2895
     0.2920   0.2929   0.3387   0.3397   0.3403   0.3412   0.3621   0.3697
     0.3725   0.3739   0.3776   0.4173   0.4281   0.4344   0.4427   0.4449
     0.4511   0.4543   0.4545   0.4566   0.4601   0.4705   0.4717   0.4727
     0.4761   0.4778   0.4842   0.4869   0.4900   0.4917   0.4940   0.4960
     0.4991   0.5017   0.5035   0.5041   0.5070   0.5103   0.5173   0.5201
     0.5710   0.5718   0.5775   0.5800   0.5824   0.5846   0.5866   0.5880
     0.5970   0.5973   0.5974   0.5993   0.6216   0.6288   0.6356   0.6359
     0.6370   0.6405   0.6476   0.6487   0.6587   0.6735   0.6783   0.6814
     0.6827   0.6866   0.6903   0.6931   0.6945   0.6958   0.6969   0.6975
     0.7028   0.7035   0.7042   0.7081   0.7150   0.7165   0.7196   0.7208
     0.7224   0.7287   0.7373   0.7391   0.7739   0.7878   0.7949   0.8056
     0.8075   0.8091   0.8112   0.8117   0.8140   0.8154   0.8183   0.8192
     0.8213   0.8255   0.8321   0.8361   0.8554   0.8559   0.8576   0.8577
     0.8585   0.8593   0.8600   0.8651   0.8750   0.9017   0.9107   0.9117
     0.9158   0.9346   0.9389   0.9406   0.9424   0.9435   0.9524   0.9554
     0.9754   0.9755   0.9760   0.9797   1.0003   1.0011   1.0036   1.0043
     1.0519   1.0526   1.0544   1.0560   1.0610   1.0847   1.0857   1.0870
     1.0885   1.1057   1.1360   1.1372   1.1398   1.1412   1.1522   1.1538
[...]
     4.0585   4.0628   4.3500   4.3539   4.3554   4.3581   4.4641   4.4665
     4.4835   4.5058   4.5887   4.6785   4.6916   4.6986   4.7031   4.7104
     4.7147   4.8030   4.9109   4.9645   4.9804   5.0178   5.1030   5.1712
     5.2321   5.2814   5.2957   5.3011   5.3232   5.3446   5.3560   5.3994
     5.4572   5.4656   5.4863   5.4965   5.5021   5.6105   5.8276   5.8319
     5.8742   5.8790   5.8810   5.8834   5.8944   6.0293   6.0358   6.0426
     6.2122   6.5561   6.8827   6.8917   6.9318   6.9445   7.1825   7.2435
     7.2583   7.2622   7.2699   7.2863   7.2881   7.3065   7.3666   7.3963
     7.4051   7.4173   7.4848   7.4922   7.4969   7.4974   7.5773   7.6626
     7.7348   7.7478   7.7722   7.8458   7.9060   8.0112   8.1168   8.1261
     8.1334   8.1618   8.2091   8.3048   8.3464   8.3540   8.3632   8.3830
     8.6274   8.6567   8.8388   8.9017   8.9632   8.9962   9.0118   9.0168
     9.0238   9.0450   9.0660   9.0863   9.0933   9.0962   9.1002   9.1061
     9.1184   9.1407   9.1552   9.1654   9.1685   9.2343   9.3620   9.4680
     9.6430   9.6558   9.6666   9.6879   9.6953   9.7103   9.7178   9.7189

     the Fermi energy is     3.4500 ev

!    total energy              =  -12709.31730085 Ry
     Harris-Foulkes estimate   =  -12709.31730086 Ry
     estimated scf accuracy    <          8.5E-09 Ry

     The total energy is the sum of the following terms:

     one-electron contribution = -109343.15645020 Ry
     hartree contribution      =   56039.18686784 Ry
     xc contribution           =   -4449.23311947 Ry
     ewald contribution        =   45050.25354286 Ry
     Dispersion Correction     =      -3.00346385 Ry
     smearing contrib. (-TS)   =      -3.36467802 Ry

     convergence has been achieved in  47 iterations

     Writing output data file gc.save

     General routines

     Parallel routines

   This run was terminated on:  12:36:38   1May2017

   JOB DONE.