     Program PWSCF v.5.4.0 starts on  1May2017 at 12:20:20

     Current dimensions of program PWSCF are:
     Max number of different atomic species (ntypx) = 10
     Max number of k-points (npk) =  40000
     Max angular momentum in pseudopotentials (lmaxx) =  3

     Parameters for Dispersion Correction:
       atom      VdW radius       C_6

        Cu         2.952        374.666
        C_h        2.744         60.710
        C          2.744         60.710

     bravais-lattice index     =            0
     lattice parameter (alat)  =      13.9425  a.u.
     unit-cell volume          =   21209.0878 (a.u.)^3
     number of atoms/cell      =          149
     number of atomic types    =            3
     number of electrons       =      1296.00
     number of Kohn-Sham states=          778
     kinetic-energy cutoff     =      80.0000  Ry
     charge density cutoff     =     320.0000  Ry
     convergence threshold     =      1.0E-08
     mixing beta               =       0.7000
     number of iterations used =            8  local-TF  mixing
     Exchange-correlation      =  SLA  PW   PBX  PBC ( 1  4  3  4 0 0)

     celldm(1)=  13.942539  celldm(2)=   0.000000  celldm(3)=   0.000000
     celldm(4)=   0.000000  celldm(5)=   0.000000  celldm(6)=   0.000000

     crystal axes: (cart. coord. in units of alat)
               a(1) = (   1.000000   0.000000   0.000000 )
               a(2) = (   0.000000   2.309401   0.000000 )
               a(3) = (   0.000000   0.000000   3.388418 )

     reciprocal axes: (cart. coord. in units 2 pi/alat)
               b(1) = (  1.000000  0.000000  0.000000 )
               b(2) = (  0.000000  0.433013  0.000000 )
               b(3) = (  0.000000  0.000000  0.295123 )

     PseudoPot. # 1 for Cu read from file:
     /home/549/hxw549/Short/pseudopotentials/Cu.pbe-n-van_ak.UPF
     MD5 check sum: 601f7c30f7467666bec936e0661ce3e1
     Pseudo is Ultrasoft + core correction, Zval = 11.0
     Generated by new atomic code, or converted to UPF format
     Using radial grid of  867 points,  6 beta functions with:
                l(1) =   0
                l(2) =   0
                l(3) =   1
                l(4) =   1
                l(5) =   2
                l(6) =   2
     Q(r) pseudized with  8 coefficients,  rinner =    1.400   1.400   1.400
                                                       1.400   1.400

     PseudoPot. # 2 for C  read from file:
     /home/549/hxw549/Short/pseudopotentials/C.star1s-pbe-mt_gipaw.UPF
     MD5 check sum: ef0cb3dee31bd9e4ba2a832a2c716264
     Pseudo is Norm-conserving, Zval =  5.0
     Generated by new atomic code, or converted to UPF format
     Using radial grid of 1073 points,  1 beta functions with:
                l(1) =   0

     PseudoPot. # 3 for C  read from file:
     /home/549/hxw549/Short/pseudopotentials/C.pbe-mt_gipaw.UPF
     MD5 check sum: 5ac2f21f2c440b14befe521540822c15
     Pseudo is Norm-conserving, Zval =  4.0
     Generated by new atomic code, or converted to UPF format
     Using radial grid of 1073 points,  1 beta functions with:
                l(1) =   0

     atomic species   valence    mass     pseudopotential
        Cu            11.00    63.54600     Cu( 1.00)
        C_h            5.00    12.01070     C ( 1.00)
        C              4.00    12.01070     C ( 1.00)

     No symmetry found

   Cartesian axes

     site n.     atom                  positions (alat units)
         1           Cu  tau(   1) = (   0.0110438  -0.0114414   0.9956708  )
         2           Cu  tau(   2) = (   0.2614250   0.2200117   0.9954928  )
         3           Cu  tau(   3) = (   0.5115391  -0.0113269   0.9958217  )
         4           Cu  tau(   4) = (   0.7613891   0.2207663   0.9964136  )
         5           Cu  tau(   5) = (   0.0113943   0.4524409   0.9959458  )
         6           Cu  tau(   6) = (   0.2616259   0.6849598   0.9956623  )
         7           Cu  tau(   7) = (   0.5116233   0.4522664   0.9960070  )
         8           Cu  tau(   8) = (   0.7615468   0.6852408   0.9952534  )
         9           Cu  tau(   9) = (   0.0117907   0.9178219   0.9948203  )
        10           Cu  tau(  10) = (   0.2614792   1.1492807   0.9953844  )
        11           Cu  tau(  11) = (   0.5111147   0.9177905   0.9949121  )
        12           Cu  tau(  12) = (   0.7612765   1.1496612   0.9950202  )
        13           Cu  tau(  13) = (   0.0114254   1.3794539   0.9962709  )
        14           Cu  tau(  14) = (   0.2611847   1.6090776   0.9959988  )
        15           Cu  tau(  15) = (   0.5111112   1.3796813   0.9962249  )
        16           Cu  tau(  16) = (   0.7613800   1.6080727   0.9975318  )
        17           Cu  tau(  17) = (   0.0110525   1.8373497   0.9965526  )
        18           Cu  tau(  18) = (   0.2611022   2.0668146   0.9957100  )
        19           Cu  tau(  19) = (   0.5115353   1.8374206   0.9969094  )
        20           Cu  tau(  20) = (   0.7612623   2.0673174   0.9965234  )
        21           Cu  tau(  21) = (   0.0115865   0.2202931   1.2432999  )
        22           Cu  tau(  22) = (   0.2615067  -0.0113668   1.2436810  )
        23           Cu  tau(  23) = (   0.5121153   0.2200524   1.2432997  )
        24           Cu  tau(  24) = (   0.7615741  -0.0112684   1.2444258  )
        25           Cu  tau(  25) = (   0.0120879   0.6858149   1.2420612  )
        26           Cu  tau(  26) = (   0.2622035   0.4521150   1.2414827  )
        27           Cu  tau(  27) = (   0.5126220   0.6861224   1.2423676  )
        28           Cu  tau(  28) = (   0.7623117   0.4531408   1.2429278  )
        29           Cu  tau(  29) = (   0.0120951   1.1485183   1.2441321  )
        30           Cu  tau(  30) = (   0.2624932   0.9175385   1.2431955  )
        31           Cu  tau(  31) = (   0.5125517   1.1484323   1.2441895  )
        32           Cu  tau(  32) = (   0.7623301   0.9177824   1.2425979  )
        33           Cu  tau(  33) = (   0.0115999   1.6080459   1.2472319  )
        34           Cu  tau(  34) = (   0.2621348   1.3794321   1.2445920  )
        35           Cu  tau(  35) = (   0.5121119   1.6081595   1.2471170  )
        36           Cu  tau(  36) = (   0.7623837   1.3782062   1.2467795  )
        37           Cu  tau(  37) = (   0.0116806   2.0671470   1.2450539  )
        38           Cu  tau(  38) = (   0.2614328   1.8372499   1.2469863  )
        39           Cu  tau(  39) = (   0.5111922   2.0673891   1.2450768  )
        40           Cu  tau(  40) = (   0.7614783   1.8374249   1.2466590  )
        41           Cu  tau(  41) = (   0.0128307  -0.0113442   1.4927939  )
        42           Cu  tau(  42) = (   0.2627512   0.2210169   1.4909223  )
        43           Cu  tau(  43) = (   0.5122958  -0.0110577   1.4931574  )
        44           Cu  tau(  44) = (   0.7631788   0.2207633   1.4920526  )
        45           Cu  tau(  45) = (   0.0124689   0.4535341   1.4903636  )
        46           Cu  tau(  46) = (   0.2635812   0.6826929   1.4881866  )
        47           Cu  tau(  47) = (   0.5140215   0.4526925   1.4895506  )
        48           Cu  tau(  48) = (   0.7640315   0.6855347   1.4916045  )
        49           Cu  tau(  49) = (   0.0126120   0.9168690   1.4920031  )
        50           Cu  tau(  50) = (   0.2638222   1.1502126   1.4921598  )
        51           Cu  tau(  51) = (   0.5157245   0.9171270   1.4923349  )
        52           Cu  tau(  52) = (   0.7644218   1.1466844   1.4959148  )
        53           Cu  tau(  53) = (   0.0130865   1.3767647   1.4974788  )
        54           Cu  tau(  54) = (   0.2628014   1.6062265   1.4983366  )
        55           Cu  tau(  55) = (   0.5142526   1.3775647   1.4966766  )
        56           Cu  tau(  56) = (   0.7633736   1.6077250   1.4987595  )
        57           Cu  tau(  57) = (   0.0129415   1.8379035   1.4973478  )
        58           Cu  tau(  58) = (   0.2624971   2.0681420   1.4960341  )
        59           Cu  tau(  59) = (   0.5119507   1.8377261   1.4973559  )
        60           Cu  tau(  60) = (   0.7624206   2.0676490   1.4954378  )
[...]
       105           C   tau( 105) = (   0.3080420   0.1147424   2.3796059  )
       106           C   tau( 106) = (   0.3078839   0.3074059   2.3787516  )
       107           C   tau( 107) = (   0.4750024   0.0187577   2.3785528  )
       108           C   tau( 108) = (   0.4745346   0.4037861   2.3786007  )
       109           C   tau( 109) = (   0.6418476   0.1151567   2.3815264  )
       110           C   tau( 110) = (   0.6415739   0.3077287   2.3816382  )
       111           C   tau( 111) = (   0.8083298   0.0189081   2.3846765  )
       112           C   tau( 112) = (   0.8080686   0.4038635   2.3834607  )
       113           C   tau( 113) = (  -0.0258838   0.6927930   2.3877506  )
       114           C   tau( 114) = (  -0.0265292   0.8858155   2.4001940  )
       115           C   tau( 115) = (   0.1415205   0.5964469   2.3839271  )
       116           C   tau( 116) = (   0.1374721   0.9830981   2.3980172  )
       117           C   tau( 117) = (   0.3071235   0.6906498   2.3737503  )
       118           C   tau( 118) = (   0.3040917   0.8889408   2.3365195  )
       119           C   tau( 119) = (   0.4733060   0.5967538   2.3774762  )
       120           C_h tau( 120) = (   0.4758280   0.9832966   2.3838909  )
       121           C   tau( 121) = (   0.2828792   0.9073881   2.1186454  )
       122           C   tau( 122) = (   0.6408219   0.6930252   2.3798236  )
       123           C   tau( 123) = (   0.6397531   0.8863128   2.3897899  )
       124           C   tau( 124) = (   0.8076329   0.5970442   2.3829098  )
       125           C   tau( 125) = (   0.8065552   0.9816504   2.4042410  )
       126           C   tau( 126) = (  -0.0259380   1.2702329   2.4086560  )
       127           C   tau( 127) = (  -0.0253727   1.4625193   2.4030912  )
       128           C   tau( 128) = (   0.1399779   1.1734188   2.4072885  )
       129           C   tau( 129) = (   0.1414867   1.5585632   2.3987663  )
       130           C   tau( 130) = (   0.3074922   1.2698072   2.4008826  )
       131           C   tau( 131) = (   0.3079543   1.4616740   2.4001619  )
       132           C   tau( 132) = (   0.4746346   1.1732204   2.3987652  )
       133           C   tau( 133) = (   0.4746263   1.5583819   2.3985875  )
       134           C   tau( 134) = (   0.6408832   1.2700059   2.4047221  )
       135           C   tau( 135) = (   0.6410698   1.4623589   2.4027948  )
       136           C   tau( 136) = (   0.8073121   1.1738588   2.4065839  )
       137           C   tau( 137) = (   0.8078605   1.5585484   2.3993779  )
       138           C   tau( 138) = (  -0.0250717   1.8470642   2.3892338  )
       139           C   tau( 139) = (  -0.0250497   2.0395138   2.3882491  )
       140           C   tau( 140) = (   0.1418006   1.7508188   2.3921320  )
       141           C   tau( 141) = (   0.1414553   2.1356069   2.3853820  )
       142           C   tau( 142) = (   0.3083032   1.8470723   2.3891948  )
       143           C   tau( 143) = (   0.3083495   2.0394329   2.3832890  )
       144           C   tau( 144) = (   0.4747878   1.7506911   2.3925533  )
       145           C   tau( 145) = (   0.4750346   2.1356518   2.3814166  )
       146           C   tau( 146) = (   0.6415100   1.8470504   2.3898298  )
       147           C   tau( 147) = (   0.6415905   2.0395151   2.3848099  )
       148           C   tau( 148) = (   0.8080191   1.7508884   2.3921879  )
       149           C   tau( 149) = (   0.8083768   2.1358230   2.3856020  )

     number of k points=     6  gaussian smearing, width (Ry)=  0.1000
                       cart. coord. in units 2pi/alat
        k(    1) = (   0.0000000   0.0000000   0.0000000), wk =   0.2500000
        k(    2) = (   0.0000000  -0.2165064   0.0000000), wk =   0.2500000
        k(    3) = (   0.2500000   0.0000000   0.0000000), wk =   0.5000000
        k(    4) = (   0.2500000  -0.2165064   0.0000000), wk =   0.5000000
        k(    5) = (  -0.5000000   0.0000000   0.0000000), wk =   0.2500000
        k(    6) = (  -0.5000000  -0.2165064   0.0000000), wk =   0.2500000

     Largest allocated arrays     est. size (Mb)     dimensions
     Largest temporary arrays     est. size (Mb)     dimensions

     Initial potential from superposition of free atoms
     Check: negative starting charge=   -0.001822

     starting charge 1270.31751, renormalised to 1296.00000

     negative rho (up, down):  1.859E-03 0.000E+00
     Starting wfc are 1292 randomized atomic wfcs

     Self-consistent Calculation

     iteration #  1     ecut=    80.00 Ry     beta=0.70
     Davidson diagonalization with overlap
     c_bands:  5 eigenvalues not converged
     c_bands:  1 eigenvalues not converged
     ethr =  1.00E-04,  avg # of iterations = 40.7

     negative rho (up, down):  2.610E+01 0.000E+00

     total energy              =   -9719.23053472 Ry
     Harris-Foulkes estimate   =  -17416.59044909 Ry
     estimated scf accuracy    <  179478.49764230 Ry

     iteration #  2     ecut=    80.00 Ry     beta=0.70
     Davidson diagonalization with overlap
     ethr =  1.00E-02,  avg # of iterations = 11.5

[...]

     iteration # 34     ecut=    80.00 Ry     beta=0.70
     Davidson diagonalization with overlap
     c_bands:  1 eigenvalues not converged
     c_bands:  1 eigenvalues not converged
     ethr =  2.30E-08,  avg # of iterations = 16.0

[...]

     total energy              =  -12718.44136422 Ry
     Harris-Foulkes estimate   =  -12718.44136421 Ry
     estimated scf accuracy    <       0.00000003 Ry

     iteration # 43     ecut=    80.00 Ry     beta=0.70
     Davidson diagonalization with overlap
     ethr =  2.26E-12,  avg # of iterations =  2.8

     negative rho (up, down):  2.086E-03 0.000E+00

     End of self-consistent calculation

          k = 0.0000 0.0000 0.0000 (256287 PWs)   bands (ev):

   -17.0206 -16.1933 -15.9985 -15.2967 -14.9513 -14.6823 -14.5869 -14.2159
   -14.1674 -14.0461 -14.0402 -13.3709 -13.2300 -13.1066 -13.0547 -13.0053
   -12.9891 -11.5624 -11.4869 -11.4269 -11.3037 -11.1413 -10.3029  -9.8402
    -9.6086  -9.5570  -9.4255  -8.9388  -8.7628  -8.5822  -8.5089  -8.2317
    -7.9027  -7.7793  -7.6400  -7.5046  -7.4778  -7.4560  -7.4546  -7.3890
    -6.2563  -6.1946  -6.0530  -5.9961  -5.9256  -5.8682  -5.8011  -5.7753
    -5.7535  -5.4822  -5.4565  -4.9904  -4.8478  -4.7372  -4.7230  -4.6102
    -4.5441  -4.4455  -4.3316  -4.2929  -4.1173  -3.9959  -3.9722  -3.8871
    -3.8700  -3.5844  -3.5528  -3.4859  -3.4526  -3.3990  -3.3905  -3.3622
    -3.3345  -3.1948  -3.1569  -3.1012  -3.0902  -3.0126  -3.0039  -3.0026
    -2.9843  -2.9436  -2.8675  -2.8147  -2.7896  -2.7603  -2.7524  -2.6980
    -2.6467  -2.6284  -2.5692  -2.5314  -2.5052  -2.3863  -2.3551  -2.3330
    -2.2768  -2.2028  -2.1893  -2.1821  -2.1724  -2.1552  -2.1515  -2.1467
    -2.1460  -2.0807  -2.0410  -2.0306  -2.0220  -2.0181  -2.0129  -2.0020
    -1.9346  -1.9204  -1.8589  -1.8274  -1.8124  -1.7708  -1.7373  -1.7357
    -1.7076  -1.6938  -1.6708  -1.6549  -1.6528  -1.6463  -1.6373  -1.6129
    -1.5906  -1.5743  -1.5655  -1.5572  -1.5488  -1.5356  -1.5292  -1.5194
    -1.5140  -1.5122  -1.5017  -1.4625  -1.4481  -1.4127  -1.4075  -1.3711
    -1.3507  -1.3299  -1.2992  -1.2965  -1.2769  -1.2589  -1.2575  -1.2464
    -1.2177  -1.2122  -1.1953  -1.1895  -1.1886  -1.1643  -1.1601  -1.1475
    -1.1394  -1.1104  -1.0974  -1.0671  -1.0548  -1.0511  -1.0373  -1.0342
    -1.0329  -1.0234  -1.0189  -1.0170  -1.0153  -1.0024  -1.0008  -0.9897
    -0.9773  -0.9676  -0.9528  -0.9425  -0.9388  -0.9239  -0.9223  -0.9182
    -0.8976  -0.8852  -0.8835  -0.8720  -0.8608  -0.8602  -0.8585  -0.8522
    -0.8514  -0.8502  -0.8494  -0.8480  -0.8476  -0.8447  -0.8414  -0.8396
    -0.8358  -0.8328  -0.8189  -0.7972  -0.7860  -0.7327  -0.7262  -0.6947
    -0.6914  -0.6857  -0.6825  -0.6745  -0.6701  -0.6440  -0.6424  -0.6364
    -0.6295  -0.6281  -0.6244  -0.6115  -0.6077  -0.6024  -0.5950  -0.5804
    -0.5690  -0.5620  -0.5615  -0.5607  -0.5553  -0.5512  -0.5197  -0.5125
    -0.4972  -0.4951  -0.4916  -0.4448  -0.4419  -0.4314  -0.4295  -0.4260
    -0.4229  -0.4125  -0.4083  -0.4061  -0.4049  -0.4031  -0.3991  -0.3962
    -0.3954  -0.3886  -0.3877  -0.3858  -0.3785  -0.3622  -0.3555  -0.3525
    -0.3496  -0.3078  -0.3001  -0.2959  -0.2926  -0.2871  -0.2821  -0.2704
    -0.2647  -0.2632  -0.2599  -0.2581  -0.2544  -0.2430  -0.2416  -0.2346
    -0.2291  -0.2286  -0.2271  -0.2230  -0.2159  -0.2107  -0.2091  -0.2061
    -0.2026  -0.1993  -0.1904  -0.1865  -0.1812  -0.1726  -0.1607  -0.1373
    -0.1292  -0.1257  -0.1191  -0.1012  -0.0963  -0.0803  -0.0776  -0.0674
    -0.0662  -0.0611  -0.0602  -0.0560  -0.0535  -0.0434  -0.0287  -0.0228
    -0.0174  -0.0150  -0.0068  -0.0015   0.0053   0.0070   0.0095   0.0158
     0.0191   0.0219   0.0259   0.0327   0.0415   0.0433   0.0464   0.0473
     0.0494   0.0528   0.0605   0.0617   0.0666   0.0691   0.0849   0.0882
     0.0952   0.1017   0.1115   0.1153   0.1273   0.1331   0.1367   0.1447
     0.1561   0.1839   0.1912   0.2015   0.2122   0.2164   0.2268   0.2328
     0.2368   0.2450   0.2464   0.2530   0.2557   0.2568   0.2621   0.2642
     0.2683   0.2931   0.3179   0.3275   0.3310   0.3352   0.3381   0.3399
     0.3467   0.3529   0.3650   0.3771   0.3816   0.3824   0.3863   0.3953
     0.4030   0.4096   0.4117   0.4183   0.4252   0.4291   0.4407   0.4593
     0.4627   0.4680   0.4774   0.4824   0.4906   0.4920   0.4950   0.4986
     0.5050   0.5090   0.5160   0.5184   0.5277   0.5289   0.5329   0.5352
     0.5370   0.5415   0.5483   0.5516   0.5548   0.5566   0.5615   0.5743
     0.5778   0.5880   0.5965   0.5996   0.6029   0.6037   0.6085   0.6147
     0.6272   0.6305   0.6366   0.6440   0.6456   0.6484   0.6528   0.6532
     0.6593   0.6678   0.6727   0.6805   0.6831   0.6845   0.6871   0.6911
     0.6992   0.7042   0.7060   0.7116   0.7168   0.7194   0.7272   0.7339
     0.7378   0.7413   0.7440   0.7471   0.7479   0.7481   0.7489   0.7539
     0.7574   0.7738   0.7843   0.7997   0.8011   0.8038   0.8110   0.8173
     0.8218   0.8253   0.8270   0.8318   0.8349   0.8446   0.8540   0.8699
     0.8760   0.8782   0.8820   0.8838   0.8849   0.8937   0.8980   0.9064
     0.9126   0.9141   0.9157   0.9242   0.9298   0.9312   0.9354   0.9385
     0.9435   0.9563   0.9609   0.9679   0.9755   0.9760   0.9821   0.9867
[...]
     3.9741   3.9941   4.0013   4.0027   4.0101   4.0279   4.0950   4.1871
     4.1970   4.2451   4.3186   4.3845   4.5102   4.7355   4.8370   4.9285
     4.9411   5.1050   5.2217   5.3230   5.3830   5.4430   5.5833   5.6820
     5.7199   5.7925   5.9292   5.9465   5.9540   6.1738   6.3412   6.4065
     6.4186   6.4597   6.4731   6.4862   6.4945   6.5523   6.6548   6.7348
     6.7427   6.7770   6.7879   6.8201   6.8344   6.8853   7.0000   7.0332
     7.0698   7.0771   7.2297   7.3485   7.3865   7.4463   7.5847   7.5857
     7.5977   7.6774   7.7013   7.7561   7.8356   7.9251   7.9560   8.1069
     8.1246   8.1389   8.2010   8.2597   8.2900   8.3097   8.3178   8.3342
     8.3611   8.3990   8.4307   8.4397   8.4756   8.5713   8.5852   8.6254
     8.6289   8.6522   8.7045   8.7472   8.7838   8.8324   8.8329   8.8340
     8.9869   9.0112   9.0314   9.0884   9.0981   9.1084   9.1367   9.2029
     9.2484   9.3278   9.3718   9.4780   9.5047   9.5420   9.5700   9.5945
     9.6844   9.7157   9.7425   9.8207   9.8504   9.9635  10.0357  10.0454
    10.0734  10.1738

[...]

          k = 0.2500-0.2165 0.0000 (256316 PWs)   bands (ev):

[...]

          k =-0.5000 0.0000 0.0000 (256496 PWs)   bands (ev):

[...]

          k =-0.5000-0.2165 0.0000 (256328 PWs)   bands (ev):

   -16.8792 -15.8659 -15.7697 -15.7516 -15.3143 -15.1225 -15.0889 -15.0320
   -13.9517 -13.7464 -13.6473 -13.5923 -12.5514 -12.3644 -11.9513 -11.9499
   -11.8409 -11.6881 -11.6104 -11.5247 -11.4711 -11.4565 -11.3610 -11.3400
    -9.9749  -9.8534  -9.7122  -9.6776  -9.2102  -8.8190  -8.7735  -8.6719
    -8.4122  -8.1118  -8.0114  -7.9603  -7.8303  -6.4103  -6.1267  -6.0032
    -5.8506  -5.7124  -5.5135  -5.2947  -5.2433  -5.2324  -5.1808  -5.1791
    -5.1658  -5.1528  -5.0797  -4.9773  -4.9623  -4.6490  -4.4193  -4.3403
    -4.3209  -4.2985  -4.2308  -4.2116  -4.1972  -4.1882  -4.1858  -4.1745
    -4.1009  -4.0177  -3.9873  -3.8882  -3.8647  -3.8375  -3.7936  -3.7182
    -3.6652  -3.6299  -3.6136  -3.5631  -3.5490  -3.5084  -3.4160  -3.3996
    -3.3449  -3.1794  -3.0764  -3.0375  -3.0195  -2.6100  -2.5981  -2.5877
    -2.5716  -2.5588  -2.5563  -2.5383  -2.5253  -2.5109  -2.4837  -2.3768
    -2.2850  -2.2461  -2.1632  -2.1419  -2.0930  -2.0824  -2.0793  -2.0509
    -2.0479  -2.0179  -2.0159  -2.0011  -1.9616  -1.8798  -1.8372  -1.8052
    -1.8023  -1.7894  -1.7801  -1.7294  -1.7014  -1.6174  -1.5704  -1.5246
    -1.5052  -1.4974  -1.4906  -1.4898  -1.4863  -1.4821  -1.4683  -1.4582
    -1.4423  -1.4370  -1.4282  -1.4278  -1.4091  -1.4027  -1.3943  -1.3875
    -1.3857  -1.3798  -1.3775  -1.3718  -1.3645  -1.3592  -1.3582  -1.3560
    -1.3510  -1.3251  -1.3195  -1.3057  -1.3033  -1.3026  -1.2779  -1.2408
    -1.2359  -1.2068  -1.1977  -1.1911  -1.1904  -1.1851  -1.1831  -1.1768
    -1.1678  -1.1645  -1.1528  -1.1441  -1.1398  -1.1218  -1.1195  -1.1182
    -1.1146  -1.1132  -1.1074  -1.0990  -1.0903  -1.0871  -1.0638  -1.0581
    -1.0524  -1.0503  -1.0453  -1.0434  -1.0420  -1.0385  -1.0367  -1.0354
    -1.0314  -1.0290  -1.0239  -0.9985  -0.9698  -0.9548  -0.9254  -0.9040
    -0.8808  -0.8546  -0.8541  -0.8533  -0.8513  -0.8345  -0.8244  -0.7975
    -0.7905  -0.7771  -0.7762  -0.7701  -0.7697  -0.7667  -0.7630  -0.7607
    -0.7543  -0.7233  -0.7073  -0.7021  -0.6997  -0.6965  -0.6951  -0.6927
    -0.6864  -0.6822  -0.6782  -0.6768  -0.6627  -0.6397  -0.6206  -0.5834
    -0.5820  -0.5736  -0.5700  -0.5656  -0.5567  -0.5482  -0.5220  -0.5129
    -0.5054  -0.4988  -0.4836  -0.4662  -0.4622  -0.4547  -0.4536  -0.4493
    -0.4483  -0.4303  -0.4296  -0.4238  -0.4139  -0.4032  -0.4012  -0.3993
    -0.3930  -0.3912  -0.3804  -0.3647  -0.3585  -0.3374  -0.3226  -0.2946
    -0.2881  -0.2758  -0.2751  -0.2661  -0.2626  -0.2556  -0.2549  -0.2521
    -0.2453  -0.2404  -0.2355  -0.2111  -0.1909  -0.1735  -0.1709  -0.1683
    -0.1673  -0.1642  -0.1572  -0.1548  -0.1486  -0.1462  -0.1417  -0.1255
    -0.1226  -0.1166  -0.1113  -0.1110  -0.1084  -0.1068  -0.1036  -0.1033
    -0.0998  -0.0977  -0.0885  -0.0805  -0.0629  -0.0479  -0.0424  -0.0260
    -0.0194  -0.0107  -0.0079  -0.0021   0.0055   0.0118   0.0312   0.0494
     0.0529   0.0598   0.0684   0.0705   0.0742   0.0752   0.0770   0.0786
     0.0827   0.0830   0.0838   0.0863   0.0901   0.0939   0.0956   0.0977
     0.0983   0.1018   0.1076   0.1101   0.1146   0.1174   0.1201   0.1227
     0.1265   0.1331   0.1361   0.1380   0.1430   0.1449   0.1515   0.1573
     0.1617   0.1647   0.1730   0.1796   0.2025   0.2071   0.2109   0.2146
     0.2338   0.2349   0.2442   0.2465   0.2517   0.2894   0.3069   0.3131
     0.3169   0.3224   0.3256   0.3294   0.3340   0.3350   0.3385   0.3404
     0.3451   0.3501   0.3540   0.3554   0.3593   0.3622   0.3652   0.3667
     0.3679   0.3708   0.3727   0.3749   0.3845   0.3926   0.3968   0.3990
     0.4046   0.4064   0.4179   0.4190   0.4252   0.4335   0.4370   0.4438
     0.4630   0.4650   0.4667   0.4682   0.4714   0.4792   0.4846   0.4888
     0.4921   0.4980   0.5068   0.5121   0.5133   0.5228   0.5274   0.5354
     0.5372   0.5453   0.5485   0.5514   0.5594   0.5607   0.5664   0.5682
     0.5684   0.5697   0.5722   0.5738   0.5774   0.5801   0.5827   0.5843
     0.5874   0.5955   0.5967   0.6035   0.6272   0.6292   0.6464   0.6608
     0.6640   0.6679   0.6740   0.6768   0.6812   0.6837   0.6855   0.6867
     0.6879   0.6933   0.6964   0.7063   0.7132   0.7143   0.7190   0.7207
     0.7259   0.7280   0.7298   0.7305   0.7403   0.7513   0.7598   0.7652
     0.7788   0.7814   0.7889   0.7946   0.8044   0.8100   0.8141   0.8153
     0.8278   0.8311   0.8340   0.8411   0.8456   0.8497   0.8564   0.8649
     0.8714   0.8760   0.8839   0.9141   0.9201   0.9221   0.9253   0.9363
     0.9405   0.9445   0.9583   0.9654   0.9801   0.9897   0.9899   0.9960
[...]
     4.3112   4.3435   4.3600   4.4087   4.4711   4.5404   4.5532   4.5873
     4.6104   4.6518   4.7677   4.8035   4.8983   4.9021   4.9585   4.9872
     5.0517   5.0864   5.1454   5.1600   5.1650   5.1988   5.2334   5.2693
     5.2921   5.3064   5.3298   5.3380   5.5045   5.5553   5.6675   5.6867
     5.6934   5.7449   5.7488   5.7511   5.7535   5.7905   5.8424   5.8889
     5.9695   6.0457   6.7343   6.7582   6.8109   6.8158   6.8794   6.9288
     7.1004   7.1124   7.1254   7.1407   7.1464   7.1872   7.1983   7.2554
     7.2968   7.3180   7.3306   7.3631   7.3709   7.3996   7.4474   7.5593
     7.5826   7.7645   7.8064   7.8911   7.9360   7.9453   7.9980   8.0287
     8.1642   8.2050   8.2146   8.2352   8.2391   8.3605   8.4011   8.4088
     8.4586   8.5846   8.7320   8.8583   8.8791   8.8936   8.9063   8.9225
     8.9301   8.9356   8.9416   8.9623   9.0430   9.1126   9.1226   9.1332
     9.1367   9.1578   9.2771   9.3422   9.3930   9.4014   9.4148   9.4732
     9.5193   9.5422   9.5541   9.5615   9.6226   9.7633   9.8028   9.8608
     9.9957  10.0003

     the Fermi energy is     3.3205 ev

!    total energy              =  -12718.44136419 Ry
     Harris-Foulkes estimate   =  -12718.44136422 Ry
     estimated scf accuracy    <          6.2E-09 Ry

     The total energy is the sum of the following terms:

     one-electron contribution = -109418.26928674 Ry
     hartree contribution      =   56072.42970855 Ry
     xc contribution           =   -4451.10064833 Ry
     ewald contribution        =   45084.87057564 Ry
     Dispersion Correction     =      -3.00636478 Ry
     smearing contrib. (-TS)   =      -3.36534853 Ry

     convergence has been achieved in  43 iterations

     Writing output data file gc.save

     General routines

     Parallel routines

   This run was terminated on:  16: 0:37   1May2017

   JOB DONE.