     Program PWSCF v.5.4.0 starts on  4Nov2016 at 23: 0:43

     Current dimensions of program PWSCF are:
     Max number of different atomic species (ntypx) = 10
     Max number of k-points (npk) =  40000
     Max angular momentum in pseudopotentials (lmaxx) =  3

     Parameters for Dispersion Correction:
       atom      VdW radius       C_6

        C_h        2.744         60.710
        C          2.744         60.710

     Message from routine setup:
     no reason to have ecutrho>4*ecutwfc

     bravais-lattice index     =            0
     lattice parameter (alat)  =      27.5793  a.u.
     unit-cell volume          =   10780.2123 (a.u.)^3
     number of atoms/cell      =           60
     number of atomic types    =            2
     number of electrons       =       240.00
     number of Kohn-Sham states=          144
     kinetic-energy cutoff     =      40.0000  Ry
     charge density cutoff     =     180.0000  Ry
     convergence threshold     =      1.0E-10
     mixing beta               =       0.7000
     number of iterations used =            8  plain     mixing
     Exchange-correlation      =  SLA  PW   PBX  PBC ( 1  4  3  4 0 0)
     nstep                     =           50

     celldm(1)=  27.579319  celldm(2)=   0.000000  celldm(3)=   0.000000
     celldm(4)=   0.000000  celldm(5)=   0.000000  celldm(6)=   0.000000

     crystal axes: (cart. coord. in units of alat)
               a(1) = (   1.000000   0.000000   0.000000 )
               a(2) = (  -0.433013   0.750000   0.000000 )
               a(3) = (   0.000000   0.000000   0.685197 )

     reciprocal axes: (cart. coord. in units 2 pi/alat)
               b(1) = (  1.000000  0.577350  0.000000 )
               b(2) = (  0.000000  1.333333  0.000000 )
               b(3) = (  0.000000  0.000000  1.459435 )

     PseudoPot. # 1 for C  read from file:
     /home/549/hxw549/Short/pseudopotentials/C.star1s-pbe-mt_gipaw.UPF
     MD5 check sum: ef0cb3dee31bd9e4ba2a832a2c716264
     Pseudo is Norm-conserving, Zval =  5.0
     Generated by new atomic code, or converted to UPF format
     Using radial grid of 1073 points,  1 beta functions with:
                l(1) =   0

     PseudoPot. # 2 for C  read from file:
     /home/549/hxw549/Short/pseudopotentials/C.pbe-mt_gipaw.UPF
     MD5 check sum: 5ac2f21f2c440b14befe521540822c15
     Pseudo is Norm-conserving, Zval =  4.0
     Generated by new atomic code, or converted to UPF format
     Using radial grid of 1073 points,  1 beta functions with:
                l(1) =   0

     atomic species   valence    mass     pseudopotential
        C_h            5.00    12.01070     C ( 1.00)
        C              4.00    12.01070     C ( 1.00)

      2 Sym. Ops. (no inversion) found

   Cartesian axes

     site n.     atom                  positions (alat units)
         1           C   tau(   1) = (   0.0822436   0.0500000   0.3425984  )
         2           C   tau(   2) = (  -0.0021795   0.1000000   0.3425984  )
         3           C   tau(   3) = (   0.2489103   0.0500000   0.3425984  )
         4           C   tau(   4) = (   0.1644872   0.1000000   0.3425984  )
         5           C   tau(   5) = (   0.4155769   0.0500000   0.3425984  )
         6           C   tau(   6) = (   0.3311538   0.1000000   0.3425984  )
         7           C   tau(   7) = (   0.5822436   0.0500000   0.3425984  )
         8           C   tau(   8) = (   0.4978205   0.1000000   0.3425984  )
         9           C   tau(   9) = (   0.7489103   0.0500000   0.3425984  )
        10           C   tau(  10) = (   0.6644872   0.1000000   0.3425984  )
        11           C   tau(  11) = (   0.9155769   0.0500000   0.3425984  )
        12           C   tau(  12) = (   0.8311538   0.1000000   0.3425984  )
        13           C   tau(  13) = (  -0.0043590   0.2000001   0.3425984  )
        14           C   tau(  14) = (  -0.0887820   0.2500001   0.3425984  )
        15           C   tau(  15) = (   0.1623077   0.2000001   0.3425984  )
        16           C   tau(  16) = (   0.0778846   0.2500001   0.3425984  )
        17           C   tau(  17) = (   0.3289744   0.2000001   0.3425984  )
        18           C   tau(  18) = (   0.2445513   0.2500001   0.3425984  )
        19           C   tau(  19) = (   0.4956410   0.2000001   0.3425984  )
        20           C   tau(  20) = (   0.4112180   0.2500001   0.3425984  )
        21           C   tau(  21) = (   0.6623077   0.2000001   0.3425984  )
        22           C   tau(  22) = (   0.5778846   0.2500001   0.3425984  )
        23           C   tau(  23) = (   0.8289744   0.2000001   0.3425984  )
        24           C   tau(  24) = (   0.7445513   0.2500001   0.3425984  )
        25           C   tau(  25) = (  -0.0909615   0.3500001   0.3425984  )
        26           C   tau(  26) = (  -0.1753846   0.4000001   0.3425984  )
        27           C   tau(  27) = (   0.0757051   0.3500001   0.3425984  )
        28           C   tau(  28) = (  -0.0087179   0.4000001   0.3425984  )
        29           C   tau(  29) = (   0.2423718   0.3500001   0.3425984  )
        30           C   tau(  30) = (   0.1579487   0.4000001   0.3425984  )
        31           C_h tau(  31) = (   0.4090385   0.3500001   0.3425984  )
        32           C   tau(  32) = (   0.3246154   0.4000001   0.3425984  )
        33           C   tau(  33) = (   0.5757051   0.3500001   0.3425984  )
        34           C   tau(  34) = (   0.4912821   0.4000001   0.3425984  )
        35           C   tau(  35) = (   0.7423718   0.3500001   0.3425984  )
        36           C   tau(  36) = (   0.6579487   0.4000001   0.3425984  )
        37           C   tau(  37) = (  -0.1775641   0.5000001   0.3425984  )
        38           C   tau(  38) = (  -0.2619872   0.5500001   0.3425984  )
        39           C   tau(  39) = (  -0.0108974   0.5000001   0.3425984  )
        40           C   tau(  40) = (  -0.0953205   0.5500001   0.3425984  )
        41           C   tau(  41) = (   0.1557692   0.5000001   0.3425984  )
        42           C   tau(  42) = (   0.0713462   0.5500001   0.3425984  )
        43           C   tau(  43) = (   0.3224359   0.5000001   0.3425984  )
        44           C   tau(  44) = (   0.2380128   0.5500001   0.3425984  )
        45           C   tau(  45) = (   0.4891026   0.5000001   0.3425984  )
        46           C   tau(  46) = (   0.4046795   0.5500001   0.3425984  )
        47           C   tau(  47) = (   0.6557692   0.5000001   0.3425984  )
        48           C   tau(  48) = (   0.5713462   0.5500001   0.3425984  )
        49           C   tau(  49) = (  -0.2641667   0.6500002   0.3425984  )
        50           C   tau(  50) = (  -0.3485897   0.7000002   0.3425984  )
        51           C   tau(  51) = (  -0.0975000   0.6500002   0.3425984  )
        52           C   tau(  52) = (  -0.1819231   0.7000002   0.3425984  )
        53           C   tau(  53) = (   0.0691667   0.6500002   0.3425984  )
        54           C   tau(  54) = (  -0.0152564   0.7000002   0.3425984  )
        55           C   tau(  55) = (   0.2358333   0.6500002   0.3425984  )
        56           C   tau(  56) = (   0.1514103   0.7000002   0.3425984  )
        57           C   tau(  57) = (   0.4025000   0.6500002   0.3425984  )
        58           C   tau(  58) = (   0.3180769   0.7000002   0.3425984  )
        59           C   tau(  59) = (   0.5691667   0.6500002   0.3425984  )
        60           C   tau(  60) = (   0.4847436   0.7000002   0.3425984  )

     number of k points=     1  gaussian smearing, width (Ry)=  0.1000
                       cart. coord. in units 2pi/alat
        k(    1) = (   0.0000000   0.0000000   0.0000000), wk =   2.0000000

     Largest allocated arrays     est. size (Mb)     dimensions
     Largest temporary arrays     est. size (Mb)     dimensions

     Initial potential from superposition of free atoms
     Check: negative starting charge=   -0.002600

     starting charge  209.99992, renormalised to  240.00000

     negative rho (up, down):  2.971E-03 0.000E+00
     Starting wfc are  480 randomized atomic wfcs

     Self-consistent Calculation

     iteration #  1     ecut=    40.00 Ry     beta=0.70
     Davidson diagonalization with overlap
     ethr =  1.00E-04,  avg # of iterations =  8.0

     negative rho (up, down):  5.695E-04 0.000E+00

     total energy              =    -686.87771544 Ry
     Harris-Foulkes estimate   =    -693.11700606 Ry
     estimated scf accuracy    <       8.09947203 Ry

[...]

     End of self-consistent calculation

          k = 0.0000 0.0000 0.0000 ( 46005 PWs)   bands (ev):

   -21.2818 -20.1132 -19.7216 -19.6260 -19.5597 -19.4330 -19.4248 -18.6644
   -18.4085 -18.1841 -18.1267 -17.8249 -17.7768 -17.7124 -17.6884 -17.3055
   -17.2656 -16.9751 -16.8868 -16.0948 -16.0070 -15.6608 -15.6004 -15.5518
   -15.5072 -15.2442 -15.1514 -14.8339 -14.7774 -14.7327 -14.2581 -13.8549
   -13.5979 -13.5258 -13.3418 -12.8372 -12.7697 -12.5922 -12.4884 -12.3689
   -12.3685 -12.0388 -11.9930 -11.4481 -11.3173 -11.1421 -10.9433 -10.4861
   -10.4151 -10.4053 -10.1136 -10.0330  -9.9250  -9.6394  -9.6040  -9.5570
    -9.5175  -9.2892  -9.1071  -8.9865  -8.8986  -8.8316  -8.4672  -8.2666
    -8.1459  -8.0863  -7.9689  -7.9324  -7.7479  -7.6810  -7.6479  -7.5884
    -7.5272  -7.5075  -7.4082  -7.3652  -7.3539  -7.3523  -7.3191  -7.1909
    -7.1292  -7.0733  -7.0511  -6.9489  -6.7210  -6.6891  -6.6591  -6.4038
    -6.2555  -6.1384  -6.0957  -5.8961  -5.7766  -5.6171  -5.5142  -5.5094
    -5.4912  -5.3993  -5.3681  -5.3630  -5.3343  -5.2824  -5.2524  -4.9731
    -4.8805  -4.6866  -4.5498  -4.1963  -4.0062  -3.7530  -3.4542  -3.3206
    -3.2797  -3.1979  -3.0610  -2.9709  -2.8998  -2.8493  -2.2600  -2.1880
    -0.1915   0.2204   0.4237   0.6146   0.6856   0.8962   1.0268   1.0550
     1.1095   1.5342   1.5935   2.0057   2.1472   2.6972   2.8799   3.0247
     3.5912   3.6214   3.6424   3.7758   3.7788   3.8345   3.9250   3.9337

     the Fermi energy is    -1.1246 ev

!    total energy              =    -691.73975438 Ry
     Harris-Foulkes estimate   =    -691.73975438 Ry
     estimated scf accuracy    <          5.3E-11 Ry

     The total energy is the sum of the following terms:

     one-electron contribution =   -2708.49619132 Ry
     hartree contribution      =    1401.81155794 Ry
     xc contribution           =    -210.37446482 Ry
     ewald contribution        =     825.79328745 Ry
     Dispersion Correction     =      -0.24302870 Ry
     smearing contrib. (-TS)   =      -0.23091493 Ry

     convergence has been achieved in  19 iterations

     Forces acting on atoms (Ry/au):

     atom    1 type  2   force =    -0.00727393   -0.00947220    0.00000000
     atom    2 type  2   force =     0.00746253    0.00965970    0.00000000
     atom    3 type  2   force =    -0.00820680   -0.00781960    0.00000000
     atom    4 type  2   force =     0.00748872    0.00852168    0.00000000
     atom    5 type  2   force =    -0.00742502   -0.00910822    0.00000000
     atom    6 type  2   force =     0.01400983    0.00803386    0.00000000
     atom    7 type  2   force =    -0.00609387   -0.00782907    0.00000000
[...]
C        0.110630778   0.466162016   0.500000000
C        0.056033257   0.533856022   0.500000000
C        0.277314419   0.466095778   0.500000000
C        0.222717516   0.533854245   0.500000000
C        0.444552891   0.465993949   0.500000000
C        0.389572373   0.534209256   0.500000000
C_h      0.610738172   0.466277765   0.500000000
C        0.555750781   0.533812206   0.500000000
C        0.776573079   0.465999843   0.500000000
C        0.722854742   0.533831576   0.500000000
C        0.943900595   0.466115998   0.500000000
C        0.889514636   0.534226960   0.500000000
C        0.110621182   0.666175760   0.500000000
C        0.056105598   0.733866177   0.500000000
C        0.277316808   0.666176053   0.500000000
C        0.222704184   0.733825918   0.500000000
C        0.443974780   0.666149094   0.500000000
C        0.389365107   0.733865585   0.500000000
C        0.610824319   0.665665565   0.500000000
C        0.555772918   0.733594406   0.500000000
C        0.776649374   0.665575579   0.500000000
C        0.722845436   0.734193230   0.500000000
C        0.943914106   0.666142949   0.500000000
C        0.889481215   0.733593145   0.500000000
C        0.110632734   0.866187466   0.500000000
C        0.056010325   0.933759100   0.500000000
C        0.277305372   0.866208440   0.500000000
C        0.222719901   0.933806243   0.500000000
C        0.443965406   0.866184525   0.500000000
C        0.389368634   0.933777422   0.500000000
C        0.610717331   0.866187510   0.500000000
C        0.555972262   0.933779704   0.500000000
C        0.777174364   0.866013948   0.500000000
C        0.722664706   0.933835006   0.500000000
C        0.943912202   0.866166987   0.500000000
C        0.889426175   0.933819155   0.500000000

     Writing output data file graphene.save
     Check: negative starting charge=   -0.002600
     NEW-OLD atomic charge density approx. for the potential
     Check: negative starting charge=   -0.002591

[...]

     energy   old            =    -691.7397543827 Ry
     energy   new            =    -691.7399302448 Ry

     CASE: energy  _new < energy  _old

[...]

     negative rho (up, down):  4.154E-06 0.000E+00

[...]

     Threshold (ethr) on eigenvalues was too large:
     Diagonalizing with lowered threshold

     Davidson diagonalization with overlap
     ethr =  2.88E-08,  avg # of iterations =  4.0

[...]

     small trust_radius: resetting bfgs history

[...]

     number of scf cycles    =  13
     number of bfgs steps    =  12

     energy   old            =    -691.7430475482 Ry
     energy   new            =    -691.7430475635 Ry

     CASE: energy  _new < energy  _old

     Message from routine bfgs:
     history already reset at previous step: stopping
     small trust_radius: resetting bfgs history

     new trust radius        =       0.0000482166 bohr
     new conv_thr            =            1.0E-12 Ry

ATOMIC_POSITIONS (crystal)
C        0.110844396   0.066305062   0.500000000
C        0.055776724   0.133524782   0.500000000
C        0.277880517   0.066798408   0.500000000
C        0.222471768   0.133537766   0.500000000
C        0.444363048   0.066685425   0.500000000
C        0.389584847   0.134012689   0.500000000
C        0.610884505   0.066661270   0.500000000
C        0.555741522   0.133991136   0.500000000
C        0.777416171   0.066308149   0.500000000
C        0.722369010   0.133549560   0.500000000
C        0.944183255   0.066342254   0.500000000
C        0.889042846   0.133506631   0.500000000
C        0.110918435   0.266461255   0.500000000
C        0.055772664   0.333618599   0.500000000
C        0.277597846   0.266441971   0.500000000
C        0.222517157   0.333672376   0.500000000
C        0.444702631   0.267290200   0.500000000
C        0.388976217   0.333532226   0.500000000
C        0.611090651   0.267283092   0.500000000
C        0.555816423   0.333801189   0.500000000
C        0.777448984   0.266446147   0.500000000
C        0.722525921   0.333578601   0.500000000
C        0.944181157   0.266448983   0.500000000
C        0.889082069   0.333699312   0.500000000
C        0.110916490   0.466492616   0.500000000
C        0.055685643   0.533647642   0.500000000
C        0.277853532   0.466488863   0.500000000
C        0.222587488   0.533628581   0.500000000
C        0.444695934   0.466187671   0.500000000
C        0.389574120   0.533798001   0.500000000
C_h      0.610832443   0.466334627   0.500000000
C        0.555749417   0.533283285   0.500000000
C        0.776882591   0.466287822   0.500000000
C        0.722175100   0.533326093   0.500000000
C        0.943992320   0.466533089   0.500000000
C        0.888848937   0.533859453   0.500000000
C        0.110922053   0.666506216   0.500000000
C        0.055879180   0.733682959   0.500000000
C        0.277663310   0.666494153   0.500000000
C        0.222530998   0.733672416   0.500000000
C        0.444299183   0.666348337   0.500000000
C        0.389200106   0.733655562   0.500000000
C        0.610972486   0.665680612   0.500000000
C        0.555666954   0.733020747   0.500000000
C        0.776833420   0.665635217   0.500000000
C        0.722448736   0.733590539   0.500000000
C        0.944142782   0.666374519   0.500000000
C        0.888755975   0.732913569   0.500000000
C        0.110982847   0.866505545   0.500000000
C        0.055611457   0.933329625   0.500000000
C        0.277673415   0.866584876   0.500000000
C        0.222640709   0.933810616   0.500000000
C        0.444272186   0.866483736   0.500000000
C        0.389224700   0.933692434   0.500000000
C        0.610834770   0.866136570   0.500000000
C        0.555780956   0.933564591   0.500000000
C        0.777384950   0.866181101   0.500000000
C        0.722319232   0.933427951   0.500000000
C        0.943935134   0.865982820   0.500000000
C        0.889041679   0.933360467   0.500000000

     Writing output data file graphene.save
     Check: negative starting charge=   -0.002595
     NEW-OLD atomic charge density approx. for the potential
     Check: negative starting charge=   -0.002595

     Self-consistent Calculation

[...]

     Threshold (ethr) on eigenvalues was too large:
     Diagonalizing with lowered threshold

     Davidson diagonalization with overlap
     ethr =  1.03E-12,  avg # of iterations =  5.0

[...]

     total energy              =    -691.74304757 Ry
     Harris-Foulkes estimate   =    -691.74304757 Ry
     estimated scf accuracy    <          2.0E-12 Ry

     iteration #  9     ecut=    40.00 Ry     beta=0.70
     Davidson diagonalization with overlap
     ethr =  1.00E-13,  avg # of iterations =  1.0

     End of self-consistent calculation

          k = 0.0000 0.0000 0.0000 ( 46005 PWs)   bands (ev):

   -21.3283 -20.1064 -19.7251 -19.6317 -19.5501 -19.4225 -19.4193 -18.6624
   -18.4147 -18.1815 -18.1319 -17.8235 -17.7768 -17.7062 -17.6826 -17.2973
   -17.2639 -16.9643 -16.8881 -16.1000 -16.0112 -15.6507 -15.5970 -15.5451
   -15.5054 -15.2294 -15.1237 -14.8427 -14.7736 -14.7227 -14.2148 -13.8944
   -13.6109 -13.5581 -13.3389 -12.8484 -12.7875 -12.6003 -12.5065 -12.3846
   -12.3531 -12.0058 -11.9576 -11.4529 -11.3171 -11.1383 -10.9408 -10.4639
   -10.4404 -10.3744 -10.1483 -10.0679  -9.9549  -9.6613  -9.6256  -9.5849
    -9.5471  -9.2737  -9.0790  -8.9571  -8.9269  -8.8031  -8.4679  -8.2312
    -8.0936  -8.0846  -7.9818  -7.9420  -7.7349  -7.6568  -7.6499  -7.6080
    -7.5270  -7.5000  -7.4387  -7.3689  -7.3532  -7.3469  -7.3290  -7.2252
    -7.1591  -7.0974  -7.0849  -6.9225  -6.7296  -6.6764  -6.6379  -6.4041
    -6.2179  -6.1015  -6.0802  -5.8946  -5.7770  -5.6042  -5.5348  -5.5085
    -5.4789  -5.4251  -5.3886  -5.3704  -5.3410  -5.2361  -5.2008  -4.9626
    -4.8762  -4.6624  -4.5342  -4.2860  -3.9177  -3.7672  -3.4764  -3.3257
    -3.2766  -3.1935  -3.0671  -2.9533  -2.8974  -2.8629  -2.2409  -2.1666
    -0.2159   0.1963   0.4090   0.6019   0.6599   0.9078   1.0447   1.0768
     1.1090   1.5686   1.6302   1.9641   2.1107   2.6964   2.8680   3.0162
     3.5893   3.6210   3.6279   3.7757   3.7793   3.7957   3.9294   3.9350

     the Fermi energy is    -1.1269 ev

!    total energy              =    -691.74304757 Ry
     Harris-Foulkes estimate   =    -691.74304757 Ry
     estimated scf accuracy    <          1.8E-13 Ry

     The total energy is the sum of the following terms:

     one-electron contribution =   -2708.42450366 Ry
     hartree contribution      =    1401.77244749 Ry
     xc contribution           =    -210.35517355 Ry
     ewald contribution        =     825.74139161 Ry
     Dispersion Correction     =      -0.24289051 Ry
     smearing contrib. (-TS)   =      -0.23431894 Ry

     convergence has been achieved in   9 iterations

     Forces acting on atoms (Ry/au):

     atom    1 type  2   force =     0.00000623   -0.00001624    0.00000000
     atom    2 type  2   force =     0.00000220    0.00002137    0.00000000
     atom    3 type  2   force =     0.00000720    0.00000463    0.00000000
     atom    4 type  2   force =    -0.00002188    0.00000853    0.00000000
     atom    5 type  2   force =    -0.00001791   -0.00001192    0.00000000
     atom    6 type  2   force =    -0.00001074    0.00001713    0.00000000
     atom    7 type  2   force =    -0.00002062   -0.00001038    0.00000000
     atom    8 type  2   force =     0.00002545    0.00001913    0.00000000
     atom    9 type  2   force =     0.00000583   -0.00000484    0.00000000
     atom   10 type  2   force =     0.00001722    0.00001035    0.00000000
     atom   11 type  2   force =     0.00000984   -0.00000941    0.00000000
     atom   12 type  2   force =     0.00000808    0.00000463    0.00000000
     atom   13 type  2   force =     0.00000630    0.00000577    0.00000000
     atom   14 type  2   force =     0.00001227    0.00000704    0.00000000
     atom   15 type  2   force =     0.00000858   -0.00000148    0.00000000
     atom   16 type  2   force =    -0.00002164    0.00000976    0.00000000
     atom   17 type  2   force =    -0.00001927   -0.00001317    0.00000000
     atom   18 type  2   force =    -0.00001754    0.00000832    0.00000000
     atom   19 type  2   force =    -0.00000523   -0.00001015    0.00000000
     atom   20 type  2   force =     0.00002067    0.00001257    0.00000000
     atom   21 type  2   force =     0.00001944    0.00000821    0.00000000
     atom   22 type  2   force =     0.00000210   -0.00000143    0.00000000
     atom   23 type  2   force =    -0.00000056    0.00000055    0.00000000
     atom   24 type  2   force =     0.00000943   -0.00000960    0.00000000
     atom   25 type  2   force =    -0.00001353    0.00000967    0.00000000
     atom   26 type  2   force =     0.00001291   -0.00000634    0.00000000
     atom   27 type  2   force =    -0.00000061    0.00000977    0.00000000
     atom   28 type  2   force =    -0.00000419   -0.00000827    0.00000000
     atom   29 type  2   force =    -0.00001814   -0.00001595    0.00000000
     atom   30 type  2   force =    -0.00000453   -0.00000212    0.00000000
     atom   31 type  1   force =     0.00000080   -0.00000499    0.00000000
     atom   32 type  2   force =     0.00001082    0.00000662    0.00000000
     atom   33 type  2   force =     0.00003484    0.00001572    0.00000000
     atom   34 type  2   force =    -0.00001680   -0.00001378    0.00000000
     atom   35 type  2   force =    -0.00000152    0.00000802    0.00000000
     atom   36 type  2   force =    -0.00000299   -0.00001702    0.00000000
     atom   37 type  2   force =    -0.00001113    0.00000321    0.00000000
     atom   38 type  2   force =     0.00000793    0.00000417    0.00000000
     atom   39 type  2   force =    -0.00000483    0.00000993    0.00000000
     atom   40 type  2   force =    -0.00001404   -0.00001809    0.00000000
     atom   41 type  2   force =    -0.00002346   -0.00000289    0.00000000
     atom   42 type  2   force =     0.00000302   -0.00001920    0.00000000
     atom   43 type  2   force =     0.00001283    0.00000660    0.00000000
     atom   44 type  2   force =     0.00001655   -0.00000437    0.00000000
     atom   45 type  2   force =     0.00004947    0.00000587    0.00000000
     atom   46 type  2   force =    -0.00003105   -0.00001285    0.00000000
     atom   47 type  2   force =     0.00000669    0.00000228    0.00000000
     atom   48 type  2   force =    -0.00002393   -0.00001239    0.00000000
     atom   49 type  2   force =     0.00000021   -0.00000542    0.00000000
     atom   50 type  2   force =     0.00000308    0.00001050    0.00000000
     atom   51 type  2   force =     0.00000542    0.00000537    0.00000000
     atom   52 type  2   force =    -0.00000813    0.00000763    0.00000000
     atom   53 type  2   force =    -0.00002773   -0.00000178    0.00000000
     atom   54 type  2   force =    -0.00001424   -0.00000481    0.00000000
     atom   55 type  2   force =    -0.00002112    0.00000254    0.00000000
     atom   56 type  2   force =     0.00002277    0.00000318    0.00000000
     atom   57 type  2   force =     0.00003547    0.00000451    0.00000000
     atom   58 type  2   force =    -0.00000648   -0.00000341    0.00000000
     atom   59 type  2   force =     0.00001737   -0.00001776    0.00000000
     atom   60 type  2   force =    -0.00001715    0.00000649    0.00000000

     Total force =     0.000151     Total SCF correction =     0.000001

     bfgs converged in  14 scf cycles and  13 bfgs steps
     (criteria: energy <  1.0E-06, force <  1.0E-05)

     End of BFGS Geometry Optimization

     Final energy   =    -691.7430475696 Ry
Begin final coordinates

ATOMIC_POSITIONS (crystal)
C        0.110844396   0.066305062   0.500000000
C        0.055776724   0.133524782   0.500000000
C        0.277880517   0.066798408   0.500000000
C        0.222471768   0.133537766   0.500000000
C        0.444363048   0.066685425   0.500000000
C        0.389584847   0.134012689   0.500000000
C        0.610884505   0.066661270   0.500000000
C        0.555741522   0.133991136   0.500000000
C        0.777416171   0.066308149   0.500000000
C        0.722369010   0.133549560   0.500000000
C        0.944183255   0.066342254   0.500000000
C        0.889042846   0.133506631   0.500000000
C        0.110918435   0.266461255   0.500000000
C        0.055772664   0.333618599   0.500000000
C        0.277597846   0.266441971   0.500000000
C        0.222517157   0.333672376   0.500000000
C        0.444702631   0.267290200   0.500000000
C        0.388976217   0.333532226   0.500000000
C        0.611090651   0.267283092   0.500000000
C        0.555816423   0.333801189   0.500000000
C        0.777448984   0.266446147   0.500000000
C        0.722525921   0.333578601   0.500000000
C        0.944181157   0.266448983   0.500000000
C        0.889082069   0.333699312   0.500000000
C        0.110916490   0.466492616   0.500000000
C        0.055685643   0.533647642   0.500000000
C        0.277853532   0.466488863   0.500000000
C        0.222587488   0.533628581   0.500000000
C        0.444695934   0.466187671   0.500000000
C        0.389574120   0.533798001   0.500000000
C_h      0.610832443   0.466334627   0.500000000
C        0.555749417   0.533283285   0.500000000
C        0.776882591   0.466287822   0.500000000
C        0.722175100   0.533326093   0.500000000
C        0.943992320   0.466533089   0.500000000
C        0.888848937   0.533859453   0.500000000
C        0.110922053   0.666506216   0.500000000
C        0.055879180   0.733682959   0.500000000
C        0.277663310   0.666494153   0.500000000
C        0.222530998   0.733672416   0.500000000
C        0.444299183   0.666348337   0.500000000
C        0.389200106   0.733655562   0.500000000
C        0.610972486   0.665680612   0.500000000
C        0.555666954   0.733020747   0.500000000
C        0.776833420   0.665635217   0.500000000
C        0.722448736   0.733590539   0.500000000
C        0.944142782   0.666374519   0.500000000
C        0.888755975   0.732913569   0.500000000
C        0.110982847   0.866505545   0.500000000
C        0.055611457   0.933329625   0.500000000
C        0.277673415   0.866584876   0.500000000
C        0.222640709   0.933810616   0.500000000
C        0.444272186   0.866483736   0.500000000
C        0.389224700   0.933692434   0.500000000
C        0.610834770   0.866136570   0.500000000
C        0.555780956   0.933564591   0.500000000
C        0.777384950   0.866181101   0.500000000
C        0.722319232   0.933427951   0.500000000
C        0.943935134   0.865982820   0.500000000
C        0.889041679   0.933360467   0.500000000
End final coordinates

     Writing output data file graphene.save

     General routines

     Parallel routines

   This run was terminated on:  23: 4:35   4Nov2016

   JOB DONE.