     Program PWSCF v.5.4.0 starts on 20Apr2017 at 14:38: 6

     Current dimensions of program PWSCF are:
     Max number of different atomic species (ntypx) = 10
     Max number of k-points (npk) =  40000
     Max angular momentum in pseudopotentials (lmaxx) =  3

     Parameters for Dispersion Correction:
       atom      VdW radius       C_6

        Cu         2.952        374.666
        C_h        2.744         60.710
        C          2.744         60.710

     bravais-lattice index     =            0
     lattice parameter (alat)  =      13.9425  a.u.
     unit-cell volume          =   21209.0878 (a.u.)^3
     number of atoms/cell      =          156
     number of atomic types    =            3
     number of electrons       =      1380.00
     number of Kohn-Sham states=          828
     kinetic-energy cutoff     =      80.0000  Ry
     charge density cutoff     =     320.0000  Ry
     convergence threshold     =      1.0E-08
     mixing beta               =       0.7000
     number of iterations used =            8  local-TF  mixing
     Exchange-correlation      =  SLA  PW   PBX  PBC ( 1  4  3  4 0 0)

     celldm(1)=  13.942539  celldm(2)=   0.000000  celldm(3)=   0.000000
     celldm(4)=   0.000000  celldm(5)=   0.000000  celldm(6)=   0.000000

     crystal axes: (cart. coord. in units of alat)
               a(1) = (   1.000000   0.000000   0.000000 )
               a(2) = (   0.000000   2.309401   0.000000 )
               a(3) = (   0.000000   0.000000   3.388418 )

     reciprocal axes: (cart. coord. in units 2 pi/alat)
               b(1) = (  1.000000  0.000000  0.000000 )
               b(2) = (  0.000000  0.433013  0.000000 )
               b(3) = (  0.000000  0.000000  0.295123 )

     PseudoPot. # 1 for Cu read from file:
     /home/549/hxw549/Short/pseudopotentials/Cu.pbe-n-van_ak.UPF
     MD5 check sum: 601f7c30f7467666bec936e0661ce3e1
     Pseudo is Ultrasoft + core correction, Zval = 11.0
     Generated by new atomic code, or converted to UPF format
     Using radial grid of  867 points,  6 beta functions with:
                l(1) =   0
                l(2) =   0
                l(3) =   1
                l(4) =   1
                l(5) =   2
                l(6) =   2
     Q(r) pseudized with  8 coefficients,  rinner =    1.400   1.400   1.400
                                                       1.400   1.400

     PseudoPot. # 2 for C  read from file:
     /home/549/hxw549/Short/pseudopotentials/C.star1s-pbe-mt_gipaw.UPF
     MD5 check sum: ef0cb3dee31bd9e4ba2a832a2c716264
     Pseudo is Norm-conserving, Zval =  5.0
     Generated by new atomic code, or converted to UPF format
     Using radial grid of 1073 points,  1 beta functions with:
                l(1) =   0

     PseudoPot. # 3 for C  read from file:
     /home/549/hxw549/Short/pseudopotentials/C.pbe-mt_gipaw.UPF
     MD5 check sum: 5ac2f21f2c440b14befe521540822c15
     Pseudo is Norm-conserving, Zval =  4.0
     Generated by new atomic code, or converted to UPF format
     Using radial grid of 1073 points,  1 beta functions with:
                l(1) =   0

     atomic species   valence    mass     pseudopotential
        Cu            11.00    63.54600     Cu( 1.00)
        C_h            5.00    12.01070     C ( 1.00)
        C              4.00    12.01070     C ( 1.00)

     No symmetry found

   Cartesian axes

     site n.     atom                  positions (alat units)
         1           Cu  tau(   1) = (  -0.0000549   0.0038944   0.8895039  )
         2           Cu  tau(   2) = (   0.2498561   0.2364069   0.8931545  )
         3           Cu  tau(   3) = (   0.4999834   0.0040272   0.8891076  )
         4           Cu  tau(   4) = (   0.7500655   0.2365774   0.8930538  )
         5           Cu  tau(   5) = (  -0.0000562   0.4680485   0.8986857  )
         6           Cu  tau(   6) = (   0.2499204   0.6979601   0.9023997  )
         7           Cu  tau(   7) = (   0.4999770   0.4680600   0.8986438  )
         8           Cu  tau(   8) = (   0.7499919   0.6979170   0.9024188  )
         9           Cu  tau(   9) = (  -0.0000103   0.9272203   0.9035556  )
        10           Cu  tau(  10) = (   0.2499589   1.1564729   0.9037066  )
        11           Cu  tau(  11) = (   0.4999145   0.9271629   0.9034395  )
        12           Cu  tau(  12) = (   0.7499463   1.1564243   0.9036188  )
        13           Cu  tau(  13) = (  -0.0001139   1.3860246   0.9027183  )
        14           Cu  tau(  14) = (   0.2498801   1.6163418   0.8986746  )
        15           Cu  tau(  15) = (   0.5000280   1.3859803   0.9024834  )
        16           Cu  tau(  16) = (   0.7500312   1.6160597   0.8985479  )
        17           Cu  tau(  17) = (   0.0000423   1.8478793   0.8927838  )
        18           Cu  tau(  18) = (   0.2500275   2.0802463   0.8891797  )
        19           Cu  tau(  19) = (   0.4998824   1.8476458   0.8930400  )
        20           Cu  tau(  20) = (   0.7499023   2.0802466   0.8892023  )
        21           Cu  tau(  21) = (  -0.0000006   0.2314407   1.1418707  )
        22           Cu  tau(  22) = (   0.2498892   0.0016921   1.1383038  )
        23           Cu  tau(  23) = (   0.4999305   0.2313254   1.1417344  )
        24           Cu  tau(  24) = (   0.7500314   0.0017233   1.1384329  )
        25           Cu  tau(  25) = (  -0.0000709   0.6957747   1.1517252  )
        26           Cu  tau(  26) = (   0.2500244   0.4632860   1.1474081  )
        27           Cu  tau(  27) = (   0.4999876   0.6957836   1.1516684  )
        28           Cu  tau(  28) = (   0.7498984   0.4632432   1.1473117  )
        29           Cu  tau(  29) = (  -0.0000630   1.1568679   1.1543012  )
        30           Cu  tau(  30) = (   0.2499277   0.9268448   1.1543638  )
        31           Cu  tau(  31) = (   0.4999724   1.1568693   1.1541867  )
        32           Cu  tau(  32) = (   0.7500027   0.9269784   1.1543223  )
        33           Cu  tau(  33) = (  -0.0000082   1.6210599   1.1470060  )
        34           Cu  tau(  34) = (   0.2498596   1.3881448   1.1514236  )
        35           Cu  tau(  35) = (   0.4999174   1.6209561   1.1473344  )
        36           Cu  tau(  36) = (   0.7500490   1.3882920   1.1514093  )
        37           Cu  tau(  37) = (  -0.0001368   2.0821940   1.1384383  )
        38           Cu  tau(  38) = (   0.2500917   1.8528039   1.1417247  )
        39           Cu  tau(  39) = (   0.5000439   2.0824138   1.1382179  )
        40           Cu  tau(  40) = (   0.7498259   1.8528944   1.1417626  )
        41           Cu  tau(  41) = (  -0.0001378   0.0006883   1.3919862  )
        42           Cu  tau(  42) = (   0.2499845   0.2287190   1.3929011  )
        43           Cu  tau(  43) = (   0.5000483   0.0010692   1.3920855  )
        44           Cu  tau(  44) = (   0.7499379   0.2286829   1.3928022  )
        45           Cu  tau(  45) = (   0.0000062   0.4584630   1.3955340  )
        46           Cu  tau(  46) = (   0.2499963   0.6914661   1.3999671  )
        47           Cu  tau(  47) = (   0.4999185   0.4580848   1.3951344  )
        48           Cu  tau(  48) = (   0.7499533   0.6912121   1.4000695  )
        49           Cu  tau(  49) = (  -0.0000360   0.9252124   1.4043059  )
        50           Cu  tau(  50) = (   0.2499282   1.1590389   1.4037961  )
        51           Cu  tau(  51) = (   0.4999469   0.9251753   1.4044409  )
        52           Cu  tau(  52) = (   0.7500253   1.1590458   1.4042624  )
        53           Cu  tau(  53) = (  -0.0000739   1.3928481   1.3993409  )
        54           Cu  tau(  54) = (   0.2500691   1.6257625   1.3946926  )
        55           Cu  tau(  55) = (   0.4999884   1.3926344   1.3994945  )
        56           Cu  tau(  56) = (   0.7498314   1.6259215   1.3947318  )
        57           Cu  tau(  57) = (  -0.0000489   1.8554057   1.3928460  )
        58           Cu  tau(  58) = (   0.2499235   2.0832681   1.3919605  )
        59           Cu  tau(  59) = (   0.4999390   1.8556516   1.3922941  )
        60           Cu  tau(  60) = (   0.7499778   2.0829845   1.3920999  )
[...]
       112           C   tau( 112) = (   0.1668787   0.3782408   2.4277671  )
       113           C   tau( 113) = (   0.3333089   0.0900211   2.4026227  )
       114           C   tau( 114) = (   0.3334028   0.2822316   2.4161361  )
       115           C   tau( 115) = (   0.5000830  -0.0063283   2.3982863  )
       116           C   tau( 116) = (   0.5000767   0.3780919   2.4227795  )
       117           C   tau( 117) = (   0.6669041   0.0900346   2.4025061  )
       118           C   tau( 118) = (   0.6667952   0.2822435   2.4160878  )
       119           C   tau( 119) = (   0.8334865  -0.0064471   2.3995724  )
       120           C   tau( 120) = (   0.8332736   0.3782539   2.4277003  )
       121           C   tau( 121) = (   0.0000735   0.6670179   2.4604097  )
       122           C   tau( 122) = (   0.0001050   0.8588633   2.4907114  )
       123           C   tau( 123) = (   0.1672571   0.5698504   2.4498428  )
       124           C   tau( 124) = (   0.1665971   0.9552497   2.4963875  )
       125           C   tau( 125) = (   0.3330385   0.6665151   2.4637668  )
       126           C   tau( 126) = (   0.3335343   0.8585536   2.4894103  )
       127           C_h tau( 127) = (   0.5001160   0.5707969   2.4446470  )
       128           C   tau( 128) = (   0.5000868   0.9548012   2.4981070  )
       129           C   tau( 129) = (   0.6671111   0.6664905   2.4640110  )
       130           C   tau( 130) = (   0.6666802   0.8585370   2.4895177  )
       131           C   tau( 131) = (   0.8329626   0.5698624   2.4498385  )
       132           C   tau( 132) = (   0.8335464   0.9552517   2.4962856  )
       133           C   tau( 133) = (   0.0000911   1.2451825   2.4876213  )
       134           C   tau( 134) = (   0.0001131   1.4371710   2.4617966  )
       135           C   tau( 135) = (   0.1670675   1.1488169   2.4970265  )
       136           C   tau( 136) = (   0.1662741   1.5330753   2.4437487  )
       137           C   tau( 137) = (   0.3332653   1.2449196   2.4879988  )
       138           C   tau( 138) = (   0.3337767   1.4368407   2.4576005  )
       139           C   tau( 139) = (   0.5001230   1.1482862   2.4940804  )
       140           C   tau( 140) = (   0.5000809   1.5342903   2.4464359  )
       141           C   tau( 141) = (   0.6669118   1.2449151   2.4881715  )
       142           C   tau( 142) = (   0.6664409   1.4368275   2.4575860  )
       143           C   tau( 143) = (   0.8331701   1.1488111   2.4971678  )
       144           C   tau( 144) = (   0.8339073   1.5330595   2.4436703  )
       145           C   tau( 145) = (   0.0001003   1.8211673   2.4126494  )
       146           C   tau( 146) = (   0.0000762   2.0135533   2.4010454  )
       147           C   tau( 147) = (   0.1666886   1.7253778   2.4216854  )
       148           C   tau( 148) = (   0.1666494   2.1103073   2.3983956  )
       149           C   tau( 149) = (   0.3333114   1.8216121   2.4144844  )
       150           C   tau( 150) = (   0.3333631   2.0140026   2.4017749  )
       151           C   tau( 151) = (   0.5000809   1.7256607   2.4249251  )
       152           C   tau( 152) = (   0.5001229   2.1104737   2.3992384  )
       153           C   tau( 153) = (   0.6668851   1.8216063   2.4144419  )
       154           C   tau( 154) = (   0.6667882   2.0139890   2.4016302  )
       155           C   tau( 155) = (   0.8334653   1.7253669   2.4216510  )
       156           C   tau( 156) = (   0.8335837   2.1103089   2.3982893  )

     number of k points=     6  gaussian smearing, width (Ry)=  0.1000
                       cart. coord. in units 2pi/alat
        k(    1) = (   0.0000000   0.0000000   0.0000000), wk =   0.2500000
        k(    2) = (   0.0000000  -0.2165064   0.0000000), wk =   0.2500000
        k(    3) = (   0.2500000   0.0000000   0.0000000), wk =   0.5000000
        k(    4) = (   0.2500000  -0.2165064   0.0000000), wk =   0.5000000
        k(    5) = (  -0.5000000   0.0000000   0.0000000), wk =   0.2500000
        k(    6) = (  -0.5000000  -0.2165064   0.0000000), wk =   0.2500000

     Largest allocated arrays     est. size (Mb)     dimensions
     Largest temporary arrays     est. size (Mb)     dimensions

     Initial potential from superposition of free atoms
     Check: negative starting charge=   -0.001552

     starting charge 1354.72292, renormalised to 1380.00000

     negative rho (up, down):  1.581E-03 0.000E+00
     Starting wfc are 1356 randomized atomic wfcs

     Self-consistent Calculation

     iteration #  1     ecut=    80.00 Ry     beta=0.70
     Davidson diagonalization with overlap
     c_bands:  5 eigenvalues not converged
     c_bands:  3 eigenvalues not converged
     c_bands:  3 eigenvalues not converged
     c_bands:  3 eigenvalues not converged
     c_bands:  5 eigenvalues not converged
     ethr =  1.00E-04,  avg # of iterations = 40.7

     negative rho (up, down):  2.540E+01 0.000E+00

     total energy              =  -10766.53889865 Ry
     Harris-Foulkes estimate   =  -19020.95235785 Ry
     estimated scf accuracy    <  214502.28808590 Ry

     iteration #  2     ecut=    80.00 Ry     beta=0.70
     Davidson diagonalization with overlap
     ethr =  1.00E-02,  avg # of iterations = 14.5

[...]

     iteration # 37     ecut=    80.00 Ry     beta=0.70
     Davidson diagonalization with overlap
     c_bands:  1 eigenvalues not converged
     ethr =  7.43E-10,  avg # of iterations =  6.5

[...]

     total energy              =  -13679.26046998 Ry
     Harris-Foulkes estimate   =  -13679.26047000 Ry
     estimated scf accuracy    <       0.00000001 Ry

     iteration # 43     ecut=    80.00 Ry     beta=0.70
     Davidson diagonalization with overlap
     ethr =  7.87E-13,  avg # of iterations =  3.2

     negative rho (up, down):  1.709E-03 0.000E+00

     End of self-consistent calculation

          k = 0.0000 0.0000 0.0000 (256287 PWs)   bands (ev):

   -16.7667 -15.6439 -15.3706 -14.8168 -14.4011 -14.1921 -14.1074 -13.6377
   -13.6080 -13.4218 -13.4099 -12.8220 -12.6986 -12.5031 -12.4834 -12.4538
   -12.4340 -11.0406 -10.9102 -10.8648 -10.7657 -10.6160  -9.7113  -9.1831
    -9.1428  -9.0244  -8.9172  -8.3628  -8.1733  -8.0549  -7.9388  -7.4104
    -7.2758  -7.1435  -7.0112  -6.9444  -6.9332  -6.9071  -6.8610  -5.7437
    -5.7301  -5.5033  -5.4103  -5.3938  -5.3468  -5.2703  -5.2419  -5.2401
    -4.9824  -4.8653  -4.8176  -4.4373  -4.2445  -4.2016  -4.1132  -4.0191
    -3.9153  -3.8584  -3.7967  -3.5157  -3.3762  -3.3711  -3.3631  -3.3589
    -3.0544  -3.0364  -2.9811  -2.9495  -2.9407  -2.8213  -2.8135  -2.7923
    -2.7828  -2.6476  -2.5481  -2.4984  -2.4388  -2.4174  -2.4001  -2.3818
    -2.3811  -2.3643  -2.3062  -2.3045  -2.3011  -2.2492  -2.2240  -2.1212
    -2.1018  -2.0684  -2.0226  -1.9354  -1.8236  -1.8095  -1.7432  -1.7416
    -1.6925  -1.6761  -1.6694  -1.5843  -1.5786  -1.5261  -1.5255  -1.5156
    -1.5150  -1.5085  -1.4496  -1.4255  -1.4243  -1.3891  -1.3887  -1.3766
    -1.3723  -1.3043  -1.2884  -1.2496  -1.2336  -1.2331  -1.1556  -1.1545
    -1.1509  -1.1498  -1.1359  -1.1083  -1.1080  -1.0884  -1.0402  -1.0359
    -1.0340  -1.0317  -1.0183  -0.9774  -0.9553  -0.9550  -0.9525  -0.9319
    -0.9288  -0.9133  -0.9091  -0.8994  -0.8606  -0.8591  -0.8032  -0.7944
    -0.7892  -0.7876  -0.7671  -0.7372  -0.7061  -0.6839  -0.6678  -0.6556
    -0.6396  -0.6361  -0.6343  -0.6036  -0.5973  -0.5951  -0.5783  -0.5705
    -0.5672  -0.5628  -0.5557  -0.5279  -0.5191  -0.4885  -0.4863  -0.4759
    -0.4572  -0.4555  -0.4482  -0.4478  -0.4438  -0.4350  -0.4300  -0.4264
    -0.4250  -0.4225  -0.3947  -0.3833  -0.3777  -0.3736  -0.3563  -0.3520
    -0.3511  -0.3490  -0.3350  -0.3265  -0.3230  -0.3193  -0.3189  -0.3162
    -0.3057  -0.2801  -0.2781  -0.2768  -0.2659  -0.2609  -0.2514  -0.2509
    -0.2301  -0.2299  -0.2284  -0.2256  -0.2207  -0.2189  -0.2171  -0.2070
    -0.2017  -0.1894  -0.1521  -0.1427  -0.1340  -0.1165  -0.1084  -0.0949
    -0.0668  -0.0633  -0.0620  -0.0534  -0.0513  -0.0482  -0.0419  -0.0337
    -0.0211  -0.0187  -0.0057  -0.0036  -0.0034   0.0053   0.0133   0.0267
     0.0271   0.0292   0.0432   0.0444   0.0444   0.0818   0.0828   0.0894
     0.1137   0.1300   0.1392   0.1402   0.1449   0.1464   0.1675   0.1683
     0.1731   0.1782   0.1983   0.1990   0.1994   0.2097   0.2102   0.2119
     0.2125   0.2147   0.2184   0.2327   0.2432   0.2456   0.2535   0.2584
     0.2589   0.2630   0.2631   0.2814   0.2856   0.2944   0.2952   0.3027
     0.3186   0.3187   0.3308   0.3316   0.3318   0.3360   0.3373   0.3495
     0.3507   0.3540   0.3605   0.3638   0.3712   0.3718   0.3772   0.3772
     0.3902   0.3904   0.4119   0.4138   0.4177   0.4188   0.4227   0.4235
     0.4248   0.4250   0.4318   0.4320   0.4601   0.4647   0.4655   0.4686
     0.4889   0.4902   0.5130   0.5147   0.5154   0.5186   0.5233   0.5317
     0.5405   0.5424   0.5469   0.5536   0.5538   0.5569   0.5576   0.5793
     0.5853   0.5856   0.5906   0.5925   0.5930   0.6013   0.6130   0.6162
     0.6164   0.6237   0.6238   0.6316   0.6398   0.6442   0.6459   0.6492
     0.6503   0.6530   0.6531   0.6599   0.6727   0.6730   0.6775   0.6776
     0.6801   0.6826   0.6851   0.6949   0.7225   0.7226   0.7384   0.7545
     0.7547   0.7690   0.7740   0.7779   0.7791   0.7813   0.7854   0.8069
     0.8097   0.8285   0.8294   0.8391   0.8421   0.8440   0.8450   0.8559
     0.8564   0.8676   0.8935   0.8981   0.8992   0.8996   0.9024   0.9057
     0.9086   0.9332   0.9351   0.9408   0.9481   0.9494   0.9547   0.9618
     0.9642   0.9887   0.9937   1.0020   1.0082   1.0113   1.0164   1.0182
     1.0200   1.0223   1.0248   1.0375   1.0381   1.0411   1.0416   1.0484
     1.0701   1.0721   1.0753   1.0790   1.0836   1.0947   1.0983   1.1036
     1.1442   1.1445   1.1484   1.1560   1.1591   1.1611   1.1650   1.1658
     1.1675   1.1747   1.1753   1.1812   1.1872   1.1908   1.1926   1.1938
     1.2040   1.2042   1.2075   1.2096   1.2162   1.2232   1.2302   1.2316
     1.2360   1.2387   1.2428   1.2491   1.2522   1.2561   1.2656   1.2659
     1.2723   1.2823   1.2864   1.2866   1.2870   1.2886   1.2892   1.2918
     1.2999   1.3032   1.3179   1.3240   1.3260   1.3314   1.3333   1.3339
     1.3350   1.3373   1.3453   1.3492   1.3497   1.3571   1.3612   1.3617
     1.3627   1.3710   1.3778   1.3797   1.3813   1.3864   1.3888   1.4003
     1.4049   1.4057   1.4284   1.4336   1.4361   1.4395   1.4474   1.4536
[...]
     4.6128   4.6129   4.9191   5.0107   5.0155   5.0252   5.0779   5.2149
     5.3252   5.4233   5.4455   5.5195   5.5307   5.5543   5.6549   5.6659
     5.7831   5.9076   6.0996   6.1169   6.2749   6.3014   6.3669   6.4730
     6.5121   6.8090   6.8098   6.8254   6.8427   6.8620   7.0449   7.0465
     7.0581   7.1883   7.2651   7.2669   7.3173   7.3819   7.3931   7.4088
     7.4097   7.4201   7.4259   7.4504   7.5136   7.6819   7.6940   7.7202
     7.8510   7.8880   7.9492   8.0049   8.0799   8.1137   8.1613   8.2774
     8.2899   8.3037   8.3065   8.5720   8.5801   8.5816   8.6625   8.6628
     8.6840   8.7104   8.7316   8.7965   8.8233   8.8359   8.9024   8.9058
     8.9275   9.0081   9.0608   9.1063   9.1338   9.1385   9.1491   9.2008
     9.2011   9.2928   9.2966   9.3035   9.3044   9.3233   9.3435   9.3463
     9.3790   9.5192   9.5676   9.7017   9.7048   9.7662   9.8008   9.8207
     9.8403   9.9650  10.0144  10.0412  10.0551  10.0853  10.0900  10.2434
    10.3784  10.4205  10.4925  10.4953  10.4964  10.5375  10.5762  10.5861
    10.6035  10.6235  10.6354  10.6436

[...]

          k = 0.2500-0.2165 0.0000 (256316 PWs)   bands (ev):

[...]

          k =-0.5000 0.0000 0.0000 (256496 PWs)   bands (ev):

[...]

          k =-0.5000-0.2165 0.0000 (256328 PWs)   bands (ev):

   -16.6631 -15.4149 -15.1950 -15.1219 -14.7024 -14.5651 -14.5077 -14.4465
   -13.4333 -13.1925 -13.0919 -13.0225 -12.0818 -11.9144 -11.3751 -11.3428
   -11.3135 -11.1264 -11.0934 -10.9409 -10.9092 -10.8900 -10.7307 -10.7014
    -9.4791  -9.4155  -9.1295  -9.0401  -8.6230  -8.2920  -8.2002  -8.1269
    -7.7031  -7.6388  -7.3916  -7.3217  -5.9374  -5.7828  -5.5315  -5.3526
    -5.2558  -5.0087  -4.8215  -4.7296  -4.6834  -4.6302  -4.6098  -4.5870
    -4.5555  -4.5460  -4.5262  -4.3510  -4.3201  -4.0159  -3.8524  -3.8507
    -3.7186  -3.6380  -3.6189  -3.5996  -3.5738  -3.5651  -3.5531  -3.5362
    -3.5256  -3.5163  -3.4743  -3.4553  -3.3446  -3.3100  -3.1250  -3.1092
    -3.1003  -3.0740  -2.9374  -2.9266  -2.8423  -2.8105  -2.7962  -2.7858
    -2.6745  -2.5767  -2.5667  -2.4828  -2.3664  -2.3609  -2.0866  -2.0803
    -2.0419  -2.0055  -1.9547  -1.9540  -1.9523  -1.9511  -1.8158  -1.7763
    -1.6952  -1.6738  -1.6402  -1.6360  -1.5615  -1.5388  -1.4958  -1.4755
    -1.4634  -1.4614  -1.4144  -1.3892  -1.3588  -1.2302  -1.2266  -1.1952
    -1.1934  -1.1844  -1.1823  -1.1403  -1.1276  -1.1148  -1.0476  -0.9979
    -0.9777  -0.9709  -0.9677  -0.9030  -0.8724  -0.8699  -0.8669  -0.8652
    -0.8308  -0.8263  -0.8236  -0.8213  -0.8211  -0.8203  -0.8165  -0.8099
    -0.8090  -0.8078  -0.7816  -0.7786  -0.7750  -0.7744  -0.7549  -0.7541
    -0.7535  -0.7513  -0.7429  -0.7420  -0.7393  -0.7387  -0.7000  -0.6966
    -0.6765  -0.6310  -0.6303  -0.6238  -0.6177  -0.5994  -0.5949  -0.5862
    -0.5845  -0.5732  -0.5728  -0.5490  -0.5484  -0.5405  -0.5388  -0.5216
    -0.5209  -0.5193  -0.5179  -0.5162  -0.5064  -0.5054  -0.5008  -0.4993
    -0.4906  -0.4896  -0.4625  -0.4614  -0.4590  -0.4546  -0.4385  -0.4370
    -0.4336  -0.4324  -0.4162  -0.4142  -0.4137  -0.4124  -0.3927  -0.3785
    -0.3762  -0.3724  -0.3688  -0.3676  -0.3180  -0.3164  -0.3146  -0.3104
    -0.2567  -0.2555  -0.2329  -0.2313  -0.2150  -0.2080  -0.1994  -0.1980
    -0.1759  -0.1573  -0.1479  -0.1473  -0.1433  -0.1425  -0.1324  -0.1316
    -0.1277  -0.1240  -0.1115  -0.0965  -0.0951  -0.0816  -0.0779  -0.0776
    -0.0689  -0.0645  -0.0614  -0.0575  -0.0488  -0.0318   0.0191   0.0248
     0.0417   0.0430   0.0482   0.0619   0.0687   0.0715   0.0784   0.0796
     0.0840   0.0901   0.1182   0.1217   0.1222   0.1238   0.1329   0.1585
     0.1621   0.1690   0.1714   0.1716   0.1725   0.1744   0.1806   0.2005
     0.2075   0.2097   0.2180   0.2292   0.2362   0.2400   0.2422   0.2799
     0.2911   0.2950   0.3132   0.3178   0.3329   0.3417   0.3436   0.3443
     0.3471   0.3490   0.3531   0.3540   0.3600   0.3606   0.3660   0.3670
     0.3788   0.3791   0.4063   0.4163   0.4291   0.4345   0.4353   0.4357
     0.4428   0.4433   0.4539   0.4561   0.4766   0.4802   0.4843   0.4853
     0.4882   0.4889   0.4895   0.4917   0.4926   0.4943   0.4988   0.5148
     0.5184   0.5283   0.5382   0.5391   0.5465   0.5551   0.5659   0.5685
     0.5873   0.5878   0.6049   0.6063   0.6208   0.6240   0.6286   0.6372
     0.6382   0.6412   0.6415   0.6443   0.6506   0.6572   0.6658   0.6675
     0.6679   0.6771   0.6813   0.6839   0.6924   0.6968   0.6986   0.6989
     0.7009   0.7011   0.7089   0.7113   0.7124   0.7158   0.7173   0.7191
     0.7310   0.7334   0.7410   0.7431   0.7446   0.7448   0.7475   0.7481
     0.7571   0.7580   0.7723   0.7802   0.8072   0.8085   0.8105   0.8108
     0.8202   0.8220   0.8236   0.8241   0.8401   0.8516   0.8529   0.8539
     0.8565   0.8678   0.8721   0.8758   0.8849   0.8898   0.9001   0.9074
     0.9107   0.9237   0.9408   0.9449   0.9464   0.9609   0.9625   0.9642
     0.9648   0.9765   0.9785   0.9887   0.9925   0.9941   0.9944   0.9989
     1.0000   1.0098   1.0120   1.0167   1.0172   1.0248   1.0263   1.0294
     1.0374   1.0402   1.0416   1.0526   1.0555   1.0597   1.0630   1.0709
     1.0758   1.0807   1.0817   1.0865   1.0874   1.0979   1.0998   1.1048
     1.1088   1.1097   1.1163   1.1267   1.1376   1.1411   1.1436   1.1554
     1.1605   1.1642   1.1669   1.1728   1.1758   1.1784   1.1789   1.1955
     1.1962   1.2027   1.2069   1.2076   1.2097   1.2112   1.2238   1.2257
     1.2275   1.2285   1.2334   1.2354   1.2360   1.2381   1.2531   1.2596
     1.2666   1.2681   1.2770   1.2777   1.2858   1.2872   1.2899   1.2971
     1.3021   1.3071   1.3129   1.3156   1.3177   1.3236   1.3270   1.3294
     1.3332   1.3371   1.3392   1.3428   1.3431   1.3513   1.3621   1.3630
     1.3706   1.3766   1.3814   1.3833   1.3888   1.3901   1.3905   1.3929
[...]
     5.0897   5.1381   5.2240   5.2369   5.2398   5.2866   5.3226   5.3722
     5.3997   5.5052   5.5243   5.5441   5.6013   5.6225   5.6306   5.6341
     5.6510   5.6958   5.7346   5.7389   5.8192   5.8573   6.0326   6.0506
     6.0567   6.0680   6.1158   6.1509   6.1678   6.1726   6.3517   6.3815
     6.3943   6.3991   6.4411   6.4772   6.7837   6.7890   6.8211   6.8262
     7.1383   7.1904   7.2687   7.2733   7.4576   7.4996   7.5008   7.5200
     7.5720   7.5896   7.7266   7.7313   7.7362   7.7405   7.9389   7.9400
     7.9409   7.9426   8.0540   8.1244   8.1490   8.1931   8.1960   8.3556
     8.3985   8.4978   8.5010   8.5485   8.5889   8.6296   8.6362   8.6382
     8.6636   8.6781   8.8611   8.8870   8.9365   8.9699   9.0093   9.0205
     9.2201   9.2299   9.2736   9.3042   9.4141   9.4145   9.4167   9.4175
     9.5027   9.5052   9.5177   9.5203   9.5874   9.5934   9.6049   9.6057
     9.6167   9.6305   9.6547   9.6697   9.7110   9.7294   9.9206   9.9822
    10.0297  10.0510  10.2635  10.2722  10.2792  10.2829  10.3570  10.3593
    10.4880  10.5172  10.5250  10.5326

     the Fermi energy is     3.9181 ev

!    total energy              =  -13679.26046996 Ry
     Harris-Foulkes estimate   =  -13679.26046998 Ry
     estimated scf accuracy    <          5.6E-09 Ry

     The total energy is the sum of the following terms:

     one-electron contribution = -106325.53692576 Ry
     hartree contribution      =   54658.14862706 Ry
     xc contribution           =   -4789.51161183 Ry
     ewald contribution        =   42784.35110335 Ry
     Dispersion Correction     =      -3.10053462 Ry
     smearing contrib. (-TS)   =      -3.61112816 Ry

     convergence has been achieved in  43 iterations

     Writing output data file gc.save

     General routines

     Parallel routines

   This run was terminated on:  18:46:54  20Apr2017

   JOB DONE.