     Program PWSCF v.5.4.0 starts on  8Sep2017 at 14:52:54

     Current dimensions of program PWSCF are:
     Max number of different atomic species (ntypx) = 10
     Max number of k-points (npk) =  40000
     Max angular momentum in pseudopotentials (lmaxx) =  3
     WARNING: atomic wfc #  2 for atom type 4 has zero norm
     WARNING: atomic wfc #  4 for atom type 4 has zero norm
     WARNING: atomic wfc #  5 for atom type 4 has zero norm

     Parameters for Dispersion Correction:
       atom      VdW radius       C_6

        Cu         2.952        374.666
        C_h        2.744         60.710
        C          2.744         60.710
        O          2.536         24.284
        H          1.892          4.857

     bravais-lattice index     =            0
     lattice parameter (alat)  =      13.9425  a.u.
     unit-cell volume          =   21209.0878 (a.u.)^3
     number of atoms/cell      =          136
     number of atomic types    =            5
     number of electrons       =      1226.00
     number of Kohn-Sham states=          736
     kinetic-energy cutoff     =      80.0000  Ry
     charge density cutoff     =     320.0000  Ry
     convergence threshold     =      1.0E-08
     mixing beta               =       0.7000
     number of iterations used =            8  local-TF  mixing
     Exchange-correlation      =  SLA  PW   PBE  PBE ( 1  4  3  4 0 0)

     celldm(1)=  13.942539  celldm(2)=   0.000000  celldm(3)=   0.000000
     celldm(4)=   0.000000  celldm(5)=   0.000000  celldm(6)=   0.000000

     crystal axes: (cart. coord. in units of alat)
               a(1) = (   1.000000   0.000000   0.000000 )
               a(2) = (   0.000000   2.309401   0.000000 )
               a(3) = (   0.000000   0.000000   3.388418 )

     reciprocal axes: (cart. coord. in units 2 pi/alat)
               b(1) = (  1.000000  0.000000  0.000000 )
               b(2) = (  0.000000  0.433013  0.000000 )
               b(3) = (  0.000000  0.000000  0.295123 )

     PseudoPot. # 1 for Cu read from file:
     /home/549/hxw549/Short/pseudopotentials/Cu.pbe-n-van_ak.UPF
     MD5 check sum: 601f7c30f7467666bec936e0661ce3e1
     Pseudo is Ultrasoft + core correction, Zval = 11.0
     Generated by new atomic code, or converted to UPF format
     Using radial grid of  867 points,  6 beta functions with:
                l(1) =   0
                l(2) =   0
                l(3) =   1
                l(4) =   1
                l(5) =   2
                l(6) =   2
     Q(r) pseudized with  8 coefficients,  rinner =    1.400   1.400   1.400
                                                       1.400   1.400

     PseudoPot. # 2 for C  read from file:
     /home/549/hxw549/Short/pseudopotentials/C.star1s-pbe-mt_gipaw.UPF
     MD5 check sum: ef0cb3dee31bd9e4ba2a832a2c716264
     Pseudo is Norm-conserving, Zval =  5.0
     Generated by new atomic code, or converted to UPF format
     Using radial grid of 1073 points,  1 beta functions with:
                l(1) =   0

     PseudoPot. # 3 for C  read from file:
     /home/549/hxw549/Short/pseudopotentials/C.pbe-mt_gipaw.UPF
     MD5 check sum: 5ac2f21f2c440b14befe521540822c15
     Pseudo is Norm-conserving, Zval =  4.0
     Generated by new atomic code, or converted to UPF format
     Using radial grid of 1073 points,  1 beta functions with:
                l(1) =   0

     PseudoPot. # 4 for O  read from file:
     /home/549/hxw549/Short/pseudopotentials/O.pbe-van_gipaw.UPF
     MD5 check sum: 5ce2a047509d4f331db576c963e74b29
     Pseudo is Ultrasoft, Zval =  6.0
     Generated by new atomic code, or converted to UPF format
     Using radial grid of 1095 points,  4 beta functions with:
                l(1) =   0
                l(2) =   0
                l(3) =   1
                l(4) =   1
     Q(r) pseudized with 0 coefficients

     PseudoPot. # 5 for H  read from file:
     /home/549/hxw549/Short/pseudopotentials/H.pbe-van_ak.UPF
     MD5 check sum: 077eb6d537518a38cb46c6de387227b7
     Pseudo is Ultrasoft, Zval =  1.0
     Generated by new atomic code, or converted to UPF format
     Using radial grid of  615 points,  1 beta functions with:
                l(1) =   0
     Q(r) pseudized with  8 coefficients,  rinner =    0.800

     atomic species   valence    mass     pseudopotential
        Cu            11.00    63.54600     Cu( 1.00)
        C_h            5.00    12.01070     C ( 1.00)
        C              4.00    12.01070     C ( 1.00)
        O              6.00    15.99940     O ( 1.00)
        H              1.00     1.00783     H ( 1.00)

     No symmetry found

   Cartesian axes

     site n.     atom                  positions (alat units)
         1           Cu  tau(   1) = (   0.0000000  -0.0001124   1.0011868  )
         2           Cu  tau(   2) = (   0.2499898   0.2314890   1.0028858  )
         3           Cu  tau(   3) = (   0.5000000  -0.0001538   1.0011207  )
         4           Cu  tau(   4) = (   0.7500102   0.2314890   1.0028858  )
         5           Cu  tau(   5) = (   0.0000000   0.4622551   1.0053524  )
         6           Cu  tau(   6) = (   0.2500088   0.6924579   1.0058364  )
         7           Cu  tau(   7) = (   0.5000000   0.4622629   1.0051606  )
         8           Cu  tau(   8) = (   0.7499912   0.6924579   1.0058364  )
         9           Cu  tau(   9) = (   0.0000000   0.9231945   1.0037099  )
        10           Cu  tau(  10) = (   0.2501144   1.1547114   1.0017292  )
        11           Cu  tau(  11) = (   0.5000000   0.9229888   1.0040738  )
        12           Cu  tau(  12) = (   0.7498856   1.1547114   1.0017292  )
        13           Cu  tau(  13) = (   0.0000000   1.3863962   1.0012899  )
        14           Cu  tau(  14) = (   0.2500136   1.6173447   1.0021190  )
        15           Cu  tau(  15) = (   0.5000000   1.3867257   1.0015878  )
        16           Cu  tau(  16) = (   0.7499864   1.6173447   1.0021190  )
        17           Cu  tau(  17) = (   0.0000000   1.8473422   1.0020731  )
        18           Cu  tau(  18) = (   0.2500067   2.0777255   1.0012575  )
        19           Cu  tau(  19) = (   0.5000000   1.8472488   1.0019769  )
        20           Cu  tau(  20) = (   0.7499933   2.0777255   1.0012575  )
        21           Cu  tau(  21) = (   0.0000000   0.2290971   1.2510133  )
        22           Cu  tau(  22) = (   0.2500654  -0.0010279   1.2492517  )
        23           Cu  tau(  23) = (   0.5000000   0.2291363   1.2509787  )
        24           Cu  tau(  24) = (   0.7499346  -0.0010279   1.2492517  )
        25           Cu  tau(  25) = (   0.0000000   0.6932770   1.2534390  )
        26           Cu  tau(  26) = (   0.2500647   0.4607032   1.2532007  )
        27           Cu  tau(  27) = (   0.5000000   0.6927500   1.2537658  )
        28           Cu  tau(  28) = (   0.7499353   0.4607032   1.2532007  )
        29           Cu  tau(  29) = (   0.0000000   1.1559961   1.2495084  )
        30           Cu  tau(  30) = (   0.2500511   0.9251246   1.2516105  )
        31           Cu  tau(  31) = (   0.5000000   1.1560617   1.2496092  )
        32           Cu  tau(  32) = (   0.7499489   0.9251246   1.2516105  )
        33           Cu  tau(  33) = (   0.0000000   1.6169015   1.2499722  )
        34           Cu  tau(  34) = (   0.2500720   1.3863550   1.2492996  )
        35           Cu  tau(  35) = (   0.5000000   1.6173459   1.2506856  )
        36           Cu  tau(  36) = (   0.7499280   1.3863550   1.2492996  )
        37           Cu  tau(  37) = (   0.0000000   2.0785906   1.2492456  )
        38           Cu  tau(  38) = (   0.2500782   1.8481473   1.2503424  )
        39           Cu  tau(  39) = (   0.5000000   2.0786197   1.2492262  )
        40           Cu  tau(  40) = (   0.7499218   1.8481473   1.2503424  )
        41           Cu  tau(  41) = (   0.0000000  -0.0018773   1.5009156  )
        42           Cu  tau(  42) = (   0.2502427   0.2272264   1.5012140  )
        43           Cu  tau(  43) = (   0.5000000  -0.0019371   1.5013637  )
        44           Cu  tau(  44) = (   0.7497573   0.2272264   1.5012140  )
        45           Cu  tau(  45) = (   0.0000000   0.4594394   1.5003477  )
        46           Cu  tau(  46) = (   0.2502570   0.6942932   1.5009157  )
        47           Cu  tau(  47) = (   0.5000000   0.4586584   1.5016837  )
        48           Cu  tau(  48) = (   0.7497430   0.6942932   1.5009157  )
        49           Cu  tau(  49) = (   0.0000000   0.9268538   1.5010944  )
        50           Cu  tau(  50) = (   0.2498040   1.1568891   1.5005333  )
        51           Cu  tau(  51) = (   0.5000000   0.9268357   1.5007380  )
        52           Cu  tau(  52) = (   0.7501960   1.1568891   1.5005333  )
        53           Cu  tau(  53) = (   0.0000000   1.3863456   1.5003872  )
        54           Cu  tau(  54) = (   0.2501219   1.6169806   1.4997659  )
        55           Cu  tau(  55) = (   0.5000000   1.3861347   1.5004185  )
        56           Cu  tau(  56) = (   0.7498781   1.6169806   1.4997659  )
        57           Cu  tau(  57) = (   0.0000000   1.8484356   1.4996601  )
        58           Cu  tau(  58) = (   0.2501193   2.0791885   1.5009757  )
        59           Cu  tau(  59) = (   0.5000000   1.8497941   1.5008599  )
        60           Cu  tau(  60) = (   0.7498807   2.0791885   1.5009757  )
[...]
       112           C   tau( 112) = (   0.8335900   0.3825093   2.3845947  )
       113           C   tau( 113) = (   0.0000000   0.6729687   2.3904796  )
       114           C   tau( 114) = (   0.0000000   0.8667256   2.3839038  )
       115           C   tau( 115) = (   0.1664436   0.5763749   2.3885814  )
       116           C   tau( 116) = (   0.1666136   0.9632494   2.3785655  )
       117           C   tau( 117) = (   0.3331423   0.6729953   2.3846639  )
       118           C   tau( 118) = (   0.3331577   0.8667554   2.3808818  )
       119           C   tau( 119) = (   0.5000000   0.5763623   2.3826941  )
       120           C   tau( 120) = (   0.5000000   0.9631968   2.3749681  )
       121           C   tau( 121) = (   0.6668577   0.6729953   2.3846639  )
       122           C   tau( 122) = (   0.6668423   0.8667554   2.3808818  )
       123           C   tau( 123) = (   0.8335564   0.5763749   2.3885814  )
       124           C   tau( 124) = (   0.8333864   0.9632494   2.3785655  )
       125           C   tau( 125) = (   0.0000000   1.2526117   2.3627777  )
       126           C   tau( 126) = (   0.1665410   1.1586079   2.3669448  )
       127           C_h tau( 127) = (   0.3335017   1.2516977   2.3567510  )
       128           C   tau( 128) = (   0.5000000   1.1584676   2.3662578  )
       129           C   tau( 129) = (   0.6664983   1.2516977   2.3567510  )
       130           C   tau( 130) = (   0.8334590   1.1586079   2.3669448  )
       131           H   tau( 131) = (   0.1664277  -0.1503820   2.3577150  )
       132           H   tau( 132) = (   0.5000000  -0.1496242   2.3442672  )
       133           H   tau( 133) = (   0.8335723  -0.1503820   2.3577150  )
       134           H   tau( 134) = (   0.0000000   1.4008679   2.3643044  )
       135           H   tau( 135) = (   0.3334167   1.3998201   2.3514427  )
       136           H   tau( 136) = (   0.6665833   1.3998201   2.3514427  )

     number of k points=     6  gaussian smearing, width (Ry)=  0.1000
                       cart. coord. in units 2pi/alat
        k(    1) = (   0.0000000   0.0000000   0.0000000), wk =   0.2500000
        k(    2) = (   0.0000000  -0.2165064   0.0000000), wk =   0.2500000
        k(    3) = (   0.2500000   0.0000000   0.0000000), wk =   0.5000000
        k(    4) = (   0.2500000  -0.2165064   0.0000000), wk =   0.5000000
        k(    5) = (  -0.5000000   0.0000000   0.0000000), wk =   0.2500000
        k(    6) = (  -0.5000000  -0.2165064   0.0000000), wk =   0.2500000

     Largest allocated arrays     est. size (Mb)     dimensions
     Largest temporary arrays     est. size (Mb)     dimensions

     Initial potential from superposition of free atoms
     Check: negative starting charge=   -0.002209

     starting charge 1209.81748, renormalised to 1226.00000

     negative rho (up, down):  2.238E-03 0.000E+00
     Starting wfc are 1146 randomized atomic wfcs

     Self-consistent Calculation

     iteration #  1     ecut=    80.00 Ry     beta=0.70
     Davidson diagonalization with overlap
     c_bands:  2 eigenvalues not converged
     c_bands:  1 eigenvalues not converged
     ethr =  1.00E-04,  avg # of iterations = 20.0

     negative rho (up, down):  2.804E+01 0.000E+00

     total energy              =   -8365.65582654 Ry
     Harris-Foulkes estimate   =  -14960.11823976 Ry
     estimated scf accuracy    <  145438.38467603 Ry

[...]

     iteration #  3     ecut=    80.00 Ry     beta=0.70
     Davidson diagonalization with overlap
     ethr =  1.00E-02,  avg # of iterations =  4.7

[...]

     iteration # 35     ecut=    80.00 Ry     beta=0.70
     Davidson diagonalization with overlap
     c_bands:  1 eigenvalues not converged
     ethr =  2.00E-08,  avg # of iterations = 10.7

[...]

     total energy              =  -12508.63434372 Ry
     Harris-Foulkes estimate   =  -12508.63434374 Ry
     estimated scf accuracy    <       0.00000002 Ry

     iteration # 43     ecut=    80.00 Ry     beta=0.70
     Davidson diagonalization with overlap
     ethr =  1.59E-12,  avg # of iterations =  2.5

     negative rho (up, down):  2.437E-03 0.000E+00

     End of self-consistent calculation

          k = 0.0000 0.0000 0.0000 (256287 PWs)   bands (ev):

   -17.0351 -16.4481 -15.6372 -14.8766 -14.8195 -14.5096 -14.2862 -14.0738
   -13.5172 -13.4015 -12.6886 -12.2699 -12.2179 -10.9835 -10.8056 -10.0501
    -9.6098  -9.5664  -9.0694  -8.8796  -8.4321  -8.2026  -8.0034  -7.6850
    -7.6305  -7.0196  -6.9508  -6.7439  -6.5654  -6.3164  -6.0424  -6.0338
    -5.9965  -5.8060  -5.7432  -5.6087  -5.2264  -5.1862  -5.1049  -4.8783
    -4.6854  -4.6093  -4.5387  -4.5116  -4.1951  -4.0070  -3.9585  -3.9528
    -3.9470  -3.7772  -3.6710  -3.6411  -3.5917  -3.5659  -3.5613  -3.5567
    -3.5529  -3.5501  -3.5074  -3.4832  -3.3541  -3.3237  -3.2665  -3.1795
    -3.1675  -3.0933  -3.0819  -2.9716  -2.9095  -2.8995  -2.8905  -2.8059
    -2.7567  -2.7488  -2.7420  -2.7052  -2.7038  -2.7012  -2.6996  -2.6805
    -2.6250  -2.5805  -2.5791  -2.5723  -2.5710  -2.5180  -2.4472  -2.4281
    -2.4021  -2.3320  -2.3114  -2.3013  -2.2935  -2.2875  -2.2774  -2.2361
    -2.2305  -2.2115  -2.2040  -2.1883  -2.1831  -2.1408  -2.1324  -2.1303
    -2.1281  -2.1082  -2.0849  -2.0815  -2.0719  -2.0658  -2.0615  -2.0197
    -2.0061  -2.0017  -1.9745  -1.9511  -1.9288  -1.9084  -1.8691  -1.8569
    -1.8455  -1.8300  -1.8173  -1.8037  -1.7687  -1.7664  -1.7609  -1.7512
    -1.7412  -1.7269  -1.7159  -1.6914  -1.6612  -1.6118  -1.6095  -1.6015
    -1.5957  -1.5947  -1.5910  -1.5896  -1.5835  -1.5821  -1.5803  -1.5745
    -1.5707  -1.5625  -1.5616  -1.5564  -1.5453  -1.5125  -1.5002  -1.4994
    -1.4931  -1.4812  -1.4783  -1.4733  -1.4451  -1.4290  -1.4257  -1.4219
    -1.4184  -1.4169  -1.4153  -1.4107  -1.4084  -1.4055  -1.4035  -1.4022
    -1.3997  -1.3987  -1.3971  -1.3951  -1.3845  -1.3766  -1.3430  -1.3177
    -1.2548  -1.2468  -1.2392  -1.2378  -1.2365  -1.2233  -1.2024  -1.2000
    -1.1878  -1.1790  -1.1675  -1.1645  -1.1641  -1.1622  -1.1529  -1.1294
    -1.1253  -1.1189  -1.1166  -1.1156  -1.1127  -1.1106  -1.1039  -1.0571
    -1.0490  -1.0399  -1.0022  -0.9990  -0.9949  -0.9927  -0.9919  -0.9842
    -0.9797  -0.9771  -0.9721  -0.9658  -0.9632  -0.9628  -0.9603  -0.9596
    -0.9593  -0.9562  -0.9499  -0.9482  -0.9464  -0.9451  -0.9256  -0.9063
    -0.9029  -0.8717  -0.8612  -0.8594  -0.8580  -0.8557  -0.8399  -0.8304
    -0.8287  -0.8251  -0.8239  -0.8187  -0.8141  -0.8079  -0.8037  -0.8018
    -0.7917  -0.7899  -0.7894  -0.7844  -0.7828  -0.7808  -0.7756  -0.7741
    -0.7701  -0.7699  -0.7587  -0.7556  -0.7466  -0.7426  -0.7347  -0.7120
    -0.6991  -0.6861  -0.6849  -0.6814  -0.6812  -0.6597  -0.6483  -0.6359
    -0.6343  -0.6274  -0.6236  -0.6209  -0.6204  -0.6198  -0.6189  -0.6073
    -0.5961  -0.5824  -0.5791  -0.5722  -0.5697  -0.5663  -0.5596  -0.5467
    -0.5435  -0.5386  -0.5374  -0.5300  -0.5212  -0.5179  -0.5159  -0.5150
    -0.5126  -0.5092  -0.5072  -0.5057  -0.5015  -0.5007  -0.4899  -0.4776
    -0.4752  -0.4644  -0.4632  -0.4515  -0.4331  -0.4245  -0.4006  -0.3969
    -0.3938  -0.3806  -0.3711  -0.3391  -0.3369  -0.3340  -0.3250  -0.3191
    -0.3103  -0.3096  -0.3024  -0.2977  -0.2922  -0.2900  -0.2881  -0.2798
    -0.2752  -0.2679  -0.2321  -0.2305  -0.2297  -0.2221  -0.2157  -0.2093
    -0.2075  -0.1931  -0.1903  -0.1874  -0.1858  -0.1822  -0.1709  -0.1519
    -0.1455  -0.1369  -0.1334  -0.1285  -0.1229  -0.1205  -0.1087  -0.0915
    -0.0874  -0.0780  -0.0761  -0.0692  -0.0622  -0.0609  -0.0576  -0.0536
    -0.0519  -0.0451  -0.0388  -0.0373  -0.0343  -0.0306  -0.0274  -0.0244
    -0.0206  -0.0190  -0.0166  -0.0133  -0.0106  -0.0057   0.0011   0.0031
     0.0171   0.0326   0.0362   0.0367   0.0388   0.0446   0.0542   0.0690
     0.0802   0.0814   0.0826   0.0854   0.0856   0.0895   0.0923   0.0949
     0.1099   0.1118   0.1156   0.1189   0.1206   0.1220   0.1238   0.1298
     0.1304   0.1331   0.1458   0.1473   0.1584   0.1621   0.1635   0.1673
     0.1762   0.1782   0.1784   0.1824   0.1897   0.1906   0.1958   0.1986
     0.2106   0.2367   0.2409   0.2460   0.2505   0.2509   0.2547   0.2613
     0.2642   0.2863   0.2908   0.2967   0.3009   0.3103   0.3106   0.3196
     0.3229   0.3254   0.3298   0.3310   0.3328   0.3450   0.3465   0.3509
     0.3552   0.3600   0.3624   0.3694   0.3721   0.3776   0.3906   0.3923
     0.3963   0.4106   0.4153   0.4157   0.4207   0.4264   0.4334   0.4389
     0.4421   0.4449   0.4473   0.4485   0.4507   0.4531   0.4568   0.4634
     0.4651   0.4665   0.4721   0.4748   0.4815   0.4887   0.4909   0.5007
     0.5060   0.5114   0.5136   0.5166   0.5225   0.5295   0.5337   0.5357
     0.5418   0.5451   0.5469   0.5483   0.5487   0.5529   0.5553   0.5628
[...]
     2.7998   2.8919   2.9688   3.0448   3.2144   3.2357   3.2683   3.2808
     3.2904   3.3015   3.3224   3.3750   3.4089   3.4133   3.4189   3.4401
     3.4509   3.4646   3.4897   3.5449   3.6529   3.6700   3.7093   3.7710
     3.8625   4.1867   4.2701   4.3614   4.5324   4.7009   4.7227   4.7707
     5.0477   5.0723   5.1413   5.2063   5.2709   5.3386   5.3834   5.5806
     5.6427   5.6687   5.7263   5.8101   5.8733   5.9062   5.9232   5.9412
     6.0570   6.1160   6.1643   6.1686   6.1887   6.2175   6.3178   6.3876
     6.4040   6.4661   6.5186   6.5960   6.7408   6.7815   6.7992   6.9214
     6.9415   7.0499   7.1054   7.1318   7.1604   7.1789   7.1827   7.2987
     7.3781   7.4307   7.4929   7.5297   7.5974   7.7267   7.7450   7.7619
     7.7859   7.7870   7.8232   7.8735   7.9184   7.9571   7.9848   8.0034
     8.0368   8.1010   8.1643   8.1988   8.2247   8.2326   8.2509   8.2585
     8.2717   8.2980   8.3287   8.3649   8.4022   8.4316   8.5170   8.5644
     8.5971   8.6339   8.7618   8.7678   8.7824   8.7999   8.9752   9.0036
     9.0191   9.0409   9.1334   9.1466   9.2434   9.2677   9.3098   9.4226

[...]

          k = 0.2500-0.2165 0.0000 (256316 PWs)   bands (ev):

[...]

          k =-0.5000 0.0000 0.0000 (256496 PWs)   bands (ev):

[...]

          k =-0.5000-0.2165 0.0000 (256328 PWs)   bands (ev):

   -16.8464 -16.2196 -16.0021 -15.6517 -15.1369 -14.7361 -13.8988 -13.5026
   -12.5985 -12.5309 -12.3226 -12.1359 -12.0342 -11.9322 -11.3457 -10.8196
   -10.0179  -9.9509  -9.6632  -9.4282  -8.7127  -8.5943  -8.1738  -7.6767
    -6.6187  -6.4035  -5.8342  -5.8131  -5.7526  -5.7408  -5.7350  -5.7154
    -5.7109  -5.4569  -5.2978  -5.1843  -5.0386  -4.8842  -4.8619  -4.8167
    -4.7848  -4.7597  -4.7416  -4.7397  -4.7040  -4.6927  -4.5195  -4.4975
    -4.4104  -4.3588  -4.2761  -4.1787  -4.0796  -4.0110  -3.9784  -3.8715
    -3.8424  -3.7575  -3.7201  -3.6886  -3.3956  -3.2801  -3.2526  -3.1598
    -3.1321  -3.1303  -3.1240  -3.1174  -3.1122  -3.1048  -3.0479  -2.9783
    -2.8054  -2.7747  -2.6560  -2.6413  -2.6322  -2.6311  -2.5983  -2.5846
    -2.5518  -2.5159  -2.3629  -2.3577  -2.3526  -2.3479  -2.2854  -2.2612
    -2.1846  -2.1459  -2.1411  -2.1389  -2.0805  -2.0524  -2.0488  -2.0469
    -2.0459  -2.0355  -2.0146  -2.0054  -2.0018  -1.9979  -1.9939  -1.9905
    -1.9515  -1.9470  -1.9462  -1.9372  -1.9334  -1.9329  -1.9314  -1.9296
    -1.9227  -1.9207  -1.9187  -1.9166  -1.9113  -1.8691  -1.8675  -1.8662
    -1.8645  -1.8220  -1.8046  -1.7972  -1.7954  -1.7873  -1.7491  -1.7477
    -1.7475  -1.7465  -1.7309  -1.7265  -1.7177  -1.7126  -1.7019  -1.6931
    -1.6904  -1.6842  -1.6832  -1.6811  -1.6793  -1.6766  -1.6756  -1.6713
    -1.6472  -1.6221  -1.6187  -1.6138  -1.6069  -1.6057  -1.6034  -1.6019
    -1.6006  -1.5996  -1.5952  -1.5929  -1.5882  -1.5835  -1.5832  -1.5470
    -1.4513  -1.4470  -1.4418  -1.4361  -1.4092  -1.4082  -1.4077  -1.4068
    -1.3575  -1.3492  -1.3385  -1.3352  -1.3289  -1.3268  -1.3249  -1.3230
    -1.3203  -1.3187  -1.3172  -1.2977  -1.2621  -1.2616  -1.2565  -1.2559
    -1.2546  -1.2505  -1.2451  -1.2400  -1.2345  -1.2323  -1.2183  -1.2148
    -1.1545  -1.1491  -1.1352  -1.1338  -1.1255  -1.1173  -1.1069  -1.1013
    -1.0653  -1.0637  -1.0596  -1.0588  -1.0158  -1.0130  -1.0124  -1.0105
    -0.9967  -0.9958  -0.9880  -0.9879  -0.9782  -0.9697  -0.9580  -0.9542
    -0.9536  -0.9504  -0.9482  -0.9472  -0.9229  -0.9090  -0.8921  -0.8822
    -0.8429  -0.8406  -0.8273  -0.8264  -0.8185  -0.8176  -0.8146  -0.8134
    -0.8082  -0.8066  -0.8041  -0.8020  -0.7535  -0.7395  -0.7322  -0.7223
    -0.7206  -0.7200  -0.7196  -0.7161  -0.7135  -0.7129  -0.7114  -0.7091
    -0.6840  -0.6819  -0.6802  -0.6793  -0.6762  -0.6707  -0.6675  -0.6667
    -0.6561  -0.6556  -0.6524  -0.6511  -0.6162  -0.5991  -0.5911  -0.5890
    -0.5845  -0.5788  -0.5743  -0.5650  -0.5565  -0.5422  -0.5238  -0.5161
    -0.5129  -0.5025  -0.5001  -0.4897  -0.4892  -0.4884  -0.4854  -0.4841
    -0.4814  -0.4779  -0.4753  -0.4724  -0.4722  -0.4675  -0.4652  -0.4630
    -0.4623  -0.4603  -0.4595  -0.4580  -0.4548  -0.4510  -0.4472  -0.4440
    -0.4403  -0.4375  -0.4329  -0.4174  -0.4167  -0.4163  -0.4155  -0.4077
    -0.4054  -0.3999  -0.3992  -0.3848  -0.3791  -0.3581  -0.3526  -0.3518
    -0.3480  -0.3387  -0.3211  -0.3163  -0.3154  -0.3124  -0.2845  -0.2491
    -0.2437  -0.2418  -0.2405  -0.2371  -0.2302  -0.2261  -0.2204  -0.2131
    -0.2093  -0.2054  -0.2033  -0.1969  -0.1959  -0.1949  -0.1936  -0.1922
    -0.1841  -0.1815  -0.1797  -0.1783  -0.1773  -0.1734  -0.1452  -0.1284
    -0.1215  -0.1172  -0.1136  -0.1112  -0.1110  -0.1050  -0.1000  -0.0995
    -0.0980  -0.0961  -0.0784  -0.0753  -0.0722  -0.0679  -0.0621  -0.0604
    -0.0580  -0.0566  -0.0395  -0.0373  -0.0335  -0.0267  -0.0211  -0.0145
    -0.0131  -0.0098  -0.0049  -0.0016  -0.0006   0.0008   0.0088   0.0099
     0.0103   0.0118   0.0135   0.0185   0.0230   0.0295   0.0324   0.0370
     0.0467   0.0515   0.0590   0.0661   0.0727   0.0808   0.0960   0.1031
     0.1067   0.1094   0.1192   0.1200   0.1205   0.1225   0.1262   0.1290
     0.1318   0.1403   0.1527   0.1575   0.1607   0.1617   0.1623   0.1626
     0.1635   0.1684   0.1772   0.1797   0.2049   0.2104   0.2169   0.2211
     0.2324   0.2431   0.2456   0.2470   0.2474   0.2598   0.2771   0.2777
     0.2841   0.2853   0.2943   0.3045   0.3100   0.3151   0.3476   0.3574
     0.3587   0.3604   0.3606   0.3812   0.3859   0.3902   0.3944   0.3984
     0.4105   0.4133   0.4186   0.4282   0.4398   0.4408   0.4452   0.4477
     0.4498   0.4597   0.4656   0.4684   0.4733   0.4749   0.4757   0.4766
     0.4774   0.4785   0.4796   0.4804   0.4844   0.4852   0.4869   0.4923
     0.4933   0.5004   0.5080   0.5097   0.5112   0.5184   0.5220   0.5271
     0.5300   0.5316   0.5412   0.5418   0.5434   0.5475   0.5587   0.5592
[...]
     3.0602   3.0671   3.0958   3.1228   3.3653   3.3690   3.3719   3.3730
     3.5758   3.6028   3.6420   3.6522   3.6608   3.6634   3.8101   3.8381
     3.9291   3.9359   3.9539   3.9644   4.0129   4.0432   4.1173   4.1316
     4.2578   4.3195   4.3821   4.4711   4.5609   4.5759   4.5778   4.5966
     4.6419   4.6568   4.6767   4.6973   4.7110   4.7655   4.7912   4.8327
     4.9256   5.0140   5.1490   5.1594   5.1637   5.1689   5.2365   5.3039
     5.3986   5.4420   5.8055   6.0402   6.1954   6.2491   6.2703   6.2874
     6.3280   6.4437   6.4637   6.5061   6.5253   6.5638   6.5817   6.5965
     6.6002   6.6519   6.6881   6.7561   6.7845   6.7924   6.8054   6.8084
     6.9496   6.9729   7.0090   7.0834   7.1940   7.3000   7.3381   7.3970
     7.4374   7.5255   7.6517   7.6587   7.6902   7.6990   7.8065   7.8887
     7.9963   8.1918   8.2135   8.2429   8.2528   8.2921   8.2976   8.3111
     8.3200   8.3718   8.3810   8.3857   8.3922   8.4346   8.4417   8.4877
     8.5534   8.5580   8.5700   8.5824   8.5872   8.6217   8.7626   8.7670
     8.7972   8.8088   8.9347   8.9849   9.0182   9.0935   9.2096   9.2503

     the Fermi energy is     2.7523 ev

!    total energy              =  -12508.63434368 Ry
     Harris-Foulkes estimate   =  -12508.63434372 Ry
     estimated scf accuracy    <          5.6E-09 Ry

     The total energy is the sum of the following terms:

     one-electron contribution = -109877.32378445 Ry
     hartree contribution      =   56251.80332701 Ry
     xc contribution           =   -4388.23954944 Ry
     ewald contribution        =   45511.19552112 Ry
     Dispersion Correction     =      -2.78481823 Ry
     smearing contrib. (-TS)   =      -3.28503970 Ry

     convergence has been achieved in  43 iterations

     Writing output data file gc.save

     General routines

     Parallel routines

   This run was terminated on:  20:57:40   8Sep2017

   JOB DONE.