     Program PWSCF v.5.4.0 starts on 14Mar2017 at 21:20:48

     Current dimensions of program PWSCF are:
     Max number of different atomic species (ntypx) = 10
     Max number of k-points (npk) =  40000
     Max angular momentum in pseudopotentials (lmaxx) =  3

     Parameters for Dispersion Correction:
       atom      VdW radius       C_6

        Cu         2.952        374.666
        C_h        2.744         60.710
        C          2.744         60.710

     bravais-lattice index     =            0
     lattice parameter (alat)  =      13.9425  a.u.
     unit-cell volume          =   21209.0878 (a.u.)^3
     number of atoms/cell      =          148
     number of atomic types    =            3
     number of electrons       =      1292.00
     number of Kohn-Sham states=          775
     kinetic-energy cutoff     =      80.0000  Ry
     charge density cutoff     =     320.0000  Ry
     convergence threshold     =      1.0E-08
     mixing beta               =       0.7000
     number of iterations used =            8  local-TF  mixing
     Exchange-correlation      =  SLA  PW   PBX  PBC ( 1  4  3  4 0 0)

     celldm(1)=  13.942539  celldm(2)=   0.000000  celldm(3)=   0.000000
     celldm(4)=   0.000000  celldm(5)=   0.000000  celldm(6)=   0.000000

     crystal axes: (cart. coord. in units of alat)
               a(1) = (   1.000000   0.000000   0.000000 )
               a(2) = (   0.000000   2.309401   0.000000 )
               a(3) = (   0.000000   0.000000   3.388418 )

     reciprocal axes: (cart. coord. in units 2 pi/alat)
               b(1) = (  1.000000  0.000000  0.000000 )
               b(2) = (  0.000000  0.433013  0.000000 )
               b(3) = (  0.000000  0.000000  0.295123 )

     PseudoPot. # 1 for Cu read from file:
     /home/549/hxw549/Short/pseudopotentials/Cu.pbe-n-van_ak.UPF
     MD5 check sum: 601f7c30f7467666bec936e0661ce3e1
     Pseudo is Ultrasoft + core correction, Zval = 11.0
     Generated by new atomic code, or converted to UPF format
     Using radial grid of  867 points,  6 beta functions with:
                l(1) =   0
                l(2) =   0
                l(3) =   1
                l(4) =   1
                l(5) =   2
                l(6) =   2
     Q(r) pseudized with  8 coefficients,  rinner =    1.400   1.400   1.400
                                                       1.400   1.400

     PseudoPot. # 2 for C  read from file:
     /home/549/hxw549/Short/pseudopotentials/C.star1s-pbe-mt_gipaw.UPF
     MD5 check sum: ef0cb3dee31bd9e4ba2a832a2c716264
     Pseudo is Norm-conserving, Zval =  5.0
     Generated by new atomic code, or converted to UPF format
     Using radial grid of 1073 points,  1 beta functions with:
                l(1) =   0

     PseudoPot. # 3 for C  read from file:
     /home/549/hxw549/Short/pseudopotentials/C.pbe-mt_gipaw.UPF
     MD5 check sum: 5ac2f21f2c440b14befe521540822c15
     Pseudo is Norm-conserving, Zval =  4.0
     Generated by new atomic code, or converted to UPF format
     Using radial grid of 1073 points,  1 beta functions with:
                l(1) =   0

     atomic species   valence    mass     pseudopotential
        Cu            11.00    63.54600     Cu( 1.00)
        C_h            5.00    12.01070     C ( 1.00)
        C              4.00    12.01070     C ( 1.00)

      2 Sym. Ops. (no inversion) found

   Cartesian axes

     site n.     atom                  positions (alat units)
         1           Cu  tau(   1) = (   0.0000000   0.0000567   0.9971194  )
         2           Cu  tau(   2) = (   0.2499927   0.2309760   0.9972946  )
         3           Cu  tau(   3) = (   0.5000000   0.0000313   0.9971490  )
         4           Cu  tau(   4) = (   0.7500073   0.2309760   0.9972946  )
         5           Cu  tau(   5) = (   0.0000000   0.4618437   0.9973425  )
         6           Cu  tau(   6) = (   0.2499840   0.6927701   0.9971914  )
         7           Cu  tau(   7) = (   0.5000000   0.4618722   0.9973119  )
         8           Cu  tau(   8) = (   0.7500160   0.6927701   0.9971914  )
         9           Cu  tau(   9) = (   0.0000000   0.9237521   0.9970621  )
        10           Cu  tau(  10) = (   0.2500157   1.1547420   0.9971373  )
        11           Cu  tau(  11) = (   0.5000000   0.9237453   0.9970727  )
        12           Cu  tau(  12) = (   0.7499843   1.1547420   0.9971373  )
        13           Cu  tau(  13) = (   0.0000000   1.3856555   0.9972830  )
        14           Cu  tau(  14) = (   0.2500029   1.6165618   0.9973242  )
        15           Cu  tau(  15) = (   0.5000000   1.3857014   0.9973005  )
        16           Cu  tau(  16) = (   0.7499971   1.6165618   0.9973242  )
        17           Cu  tau(  17) = (   0.0000000   1.8474941   0.9971969  )
        18           Cu  tau(  18) = (   0.2500043   2.0784518   0.9970745  )
        19           Cu  tau(  19) = (   0.5000000   1.8474499   0.9971773  )
        20           Cu  tau(  20) = (   0.7499957   2.0784518   0.9970745  )
        21           Cu  tau(  21) = (   0.0000000   0.2308065   1.2457643  )
        22           Cu  tau(  22) = (   0.2499892  -0.0001010   1.2455764  )
        23           Cu  tau(  23) = (   0.5000000   0.2308938   1.2456746  )
        24           Cu  tau(  24) = (   0.7500108  -0.0001010   1.2455764  )
        25           Cu  tau(  25) = (   0.0000000   0.6929786   1.2456406  )
        26           Cu  tau(  26) = (   0.2499874   0.4619293   1.2457459  )
        27           Cu  tau(  27) = (   0.5000000   0.6929012   1.2456074  )
        28           Cu  tau(  28) = (   0.7500126   0.4619293   1.2457459  )
        29           Cu  tau(  29) = (   0.0000000   1.1546142   1.2455676  )
        30           Cu  tau(  30) = (   0.2499981   0.9237849   1.2455149  )
        31           Cu  tau(  31) = (   0.5000000   1.1545763   1.2455800  )
        32           Cu  tau(  32) = (   0.7500019   0.9237849   1.2455149  )
        33           Cu  tau(  33) = (   0.0000000   1.6166029   1.2456910  )
        34           Cu  tau(  34) = (   0.2500161   1.3855492   1.2457134  )
        35           Cu  tau(  35) = (   0.5000000   1.6166555   1.2458019  )
        36           Cu  tau(  36) = (   0.7499839   1.3855492   1.2457134  )
        37           Cu  tau(  37) = (   0.0000000   2.0784993   1.2455162  )
        38           Cu  tau(  38) = (   0.2500161   1.8476387   1.2456210  )
        39           Cu  tau(  39) = (   0.5000000   2.0784755   1.2455152  )
        40           Cu  tau(  40) = (   0.7499839   1.8476387   1.2456210  )
        41           Cu  tau(  41) = (   0.0000000  -0.0003182   1.4954305  )
        42           Cu  tau(  42) = (   0.2500224   0.2307186   1.4951678  )
        43           Cu  tau(  43) = (   0.5000000  -0.0002059   1.4952775  )
        44           Cu  tau(  44) = (   0.7499776   0.2307186   1.4951678  )
        45           Cu  tau(  45) = (   0.0000000   0.4620254   1.4950571  )
        46           Cu  tau(  46) = (   0.2500339   0.6931225   1.4952807  )
        47           Cu  tau(  47) = (   0.5000000   0.4619896   1.4952144  )
        48           Cu  tau(  48) = (   0.7499661   0.6931225   1.4952807  )
        49           Cu  tau(  49) = (   0.0000000   0.9238798   1.4954544  )
        50           Cu  tau(  50) = (   0.2499708   1.1544329   1.4953374  )
        51           Cu  tau(  51) = (   0.5000000   0.9237633   1.4954072  )
        52           Cu  tau(  52) = (   0.7500292   1.1544329   1.4953374  )
        53           Cu  tau(  53) = (   0.0000000   1.3854453   1.4952066  )
        54           Cu  tau(  54) = (   0.2499861   1.6167017   1.4951298  )
        55           Cu  tau(  55) = (   0.5000000   1.3853760   1.4951346  )
        56           Cu  tau(  56) = (   0.7500139   1.6167017   1.4951298  )
        57           Cu  tau(  57) = (   0.0000000   1.8477718   1.4952308  )
        58           Cu  tau(  58) = (   0.2499930   2.0785254   1.4954090  )
        59           Cu  tau(  59) = (   0.5000000   1.8478762   1.4953503  )
        60           Cu  tau(  60) = (   0.7500070   2.0785254   1.4954090  )
[...]
       117           C   tau( 117) = (   0.3332094   0.6735984   2.3519146  )
       118           C   tau( 118) = (   0.3332031   0.8660537   2.3188436  )
       119           C   tau( 119) = (   0.5000000   0.5773685   2.3848365  )
       120           C   tau( 120) = (   0.5000000   0.9623380   2.3274096  )
       121           C   tau( 121) = (   0.6667906   0.6735984   2.3519146  )
       122           C   tau( 122) = (   0.6667969   0.8660537   2.3188436  )
       123           C   tau( 123) = (   0.8335241   0.5773226   2.3882927  )
       124           C   tau( 124) = (   0.8332572   0.9622141   2.3283312  )
       125           C   tau( 125) = (   0.0000000   1.2508867   2.4191408  )
       126           C   tau( 126) = (   0.0000000   1.4433300   2.4518594  )
       127           C   tau( 127) = (   0.1667360   1.1546708   2.3859614  )
       128           C   tau( 128) = (   0.1668939   1.5396104   2.4444049  )
       129           C   tau( 129) = (   0.3335095   1.2509657   2.4217973  )
       130           C   tau( 130) = (   0.3334866   1.4433958   2.4564270  )
       131           C   tau( 131) = (   0.5000000   1.1547731   2.3885773  )
       132           C_h tau( 132) = (   0.5000000   1.5396099   2.4488369  )
       133           C   tau( 133) = (   0.6664905   1.2509657   2.4217973  )
       134           C   tau( 134) = (   0.6665134   1.4433958   2.4564270  )
       135           C   tau( 135) = (   0.8332640   1.1546708   2.3859614  )
       136           C   tau( 136) = (   0.8331061   1.5396104   2.4444049  )
       137           C   tau( 137) = (   0.0000000   1.8283510   2.3502882  )
       138           C   tau( 138) = (   0.0000000   2.0207949   2.3185726  )
       139           C   tau( 139) = (   0.1668959   1.7320513   2.3858666  )
       140           C   tau( 140) = (   0.1666186   2.1169980   2.3278568  )
       141           C   tau( 141) = (   0.3334155   1.8282368   2.3543407  )
       142           C   tau( 142) = (   0.3334352   2.0206763   2.3191825  )
       143           C   tau( 143) = (   0.5000000   1.7319961   2.3895667  )
       144           C   tau( 144) = (   0.5000000   2.1168754   2.3283177  )
       145           C   tau( 145) = (   0.6665845   1.8282368   2.3543407  )
       146           C   tau( 146) = (   0.6665648   2.0206763   2.3191825  )
       147           C   tau( 147) = (   0.8331041   1.7320513   2.3858666  )
       148           C   tau( 148) = (   0.8333814   2.1169980   2.3278568  )

     number of k points=     6  gaussian smearing, width (Ry)=  0.1000
                       cart. coord. in units 2pi/alat
        k(    1) = (   0.0000000   0.0000000   0.0000000), wk =   0.2500000
        k(    2) = (   0.0000000  -0.2165064   0.0000000), wk =   0.2500000
        k(    3) = (   0.2500000   0.0000000   0.0000000), wk =   0.5000000
        k(    4) = (   0.2500000  -0.2165064   0.0000000), wk =   0.5000000
        k(    5) = (  -0.5000000   0.0000000   0.0000000), wk =   0.2500000
        k(    6) = (  -0.5000000  -0.2165064   0.0000000), wk =   0.2500000

     Largest allocated arrays     est. size (Mb)     dimensions
     Largest temporary arrays     est. size (Mb)     dimensions

     Initial potential from superposition of free atoms
     Check: negative starting charge=   -0.001813

     starting charge 1266.81751, renormalised to 1292.00000

     negative rho (up, down):  1.849E-03 0.000E+00
     Starting wfc are 1284 randomized atomic wfcs

     Self-consistent Calculation

     iteration #  1     ecut=    80.00 Ry     beta=0.70
     Davidson diagonalization with overlap
     c_bands:  2 eigenvalues not converged
     c_bands:  5 eigenvalues not converged
     c_bands:  1 eigenvalues not converged
     c_bands:  1 eigenvalues not converged
     ethr =  1.00E-04,  avg # of iterations = 38.2

     negative rho (up, down):  2.739E+01 0.000E+00

     total energy              =   -9471.11182361 Ry
     Harris-Foulkes estimate   =  -17293.21833015 Ry
     estimated scf accuracy    <  180019.84147255 Ry

     iteration #  2     ecut=    80.00 Ry     beta=0.70
     Davidson diagonalization with overlap
     ethr =  1.00E-02,  avg # of iterations = 12.8

[...]

     iteration # 40     ecut=    80.00 Ry     beta=0.70
     Davidson diagonalization with overlap
     c_bands:  1 eigenvalues not converged
     ethr =  8.91E-10,  avg # of iterations =  7.0

[...]

     total energy              =  -12706.84725989 Ry
     Harris-Foulkes estimate   =  -12706.84725987 Ry
     estimated scf accuracy    <       0.00000002 Ry

     iteration # 46     ecut=    80.00 Ry     beta=0.70
     Davidson diagonalization with overlap
     ethr =  1.26E-12,  avg # of iterations =  3.0

     negative rho (up, down):  2.076E-03 0.000E+00

     End of self-consistent calculation

          k = 0.0000 0.0000 0.0000 (256287 PWs)   bands (ev):

   -16.8931 -16.0274 -15.9803 -15.2399 -14.7875 -14.4960 -14.4027 -14.0384
   -14.0226 -14.0043 -13.9138 -13.3242 -13.1918 -13.1358 -13.0420 -12.7538
   -12.6974 -11.6171 -11.4030 -11.3425 -11.2798 -11.2737 -10.0302  -9.8241
    -9.7579  -9.3723  -9.3332  -8.7156  -8.5698  -8.5068  -8.4430  -7.9578
    -7.7690  -7.7178  -7.6274  -7.4391  -7.4038  -7.1739  -7.1611  -6.3059
    -6.2575  -6.0376  -5.9856  -5.9543  -5.8914  -5.8250  -5.7831  -5.7168
    -5.5215  -5.4860  -5.3451  -4.8883  -4.8661  -4.8526  -4.8027  -4.7532
    -4.5486  -4.3826  -4.2621  -4.1269  -4.0202  -3.9938  -3.9899  -3.9683
    -3.8034  -3.6104  -3.4931  -3.4320  -3.4243  -3.4153  -3.3724  -3.2625
    -3.1739  -3.1467  -3.0467  -3.0440  -3.0120  -3.0108  -2.9498  -2.8962
    -2.8887  -2.8222  -2.8135  -2.7992  -2.7964  -2.7709  -2.7528  -2.7089
    -2.7088  -2.6928  -2.5107  -2.5001  -2.4102  -2.3245  -2.3062  -2.2998
    -2.2169  -2.1990  -2.1652  -2.1634  -2.1611  -2.1606  -2.1484  -2.1391
    -2.1139  -2.0734  -2.0318  -2.0304  -2.0296  -2.0278  -1.9577  -1.9517
    -1.8798  -1.8483  -1.8469  -1.7850  -1.7501  -1.7480  -1.7455  -1.7378
    -1.6990  -1.6897  -1.6779  -1.6668  -1.6654  -1.6217  -1.6084  -1.5838
    -1.5741  -1.5696  -1.5567  -1.5402  -1.5356  -1.5283  -1.5262  -1.5248
    -1.5225  -1.5108  -1.4408  -1.4403  -1.4246  -1.4069  -1.3797  -1.3759
    -1.3744  -1.3616  -1.3085  -1.2756  -1.2703  -1.2596  -1.2230  -1.2194
    -1.2062  -1.2013  -1.1994  -1.1751  -1.1736  -1.1347  -1.0989  -1.0882
    -1.0738  -1.0699  -1.0589  -1.0529  -1.0446  -1.0434  -1.0363  -1.0337
    -1.0320  -1.0308  -1.0263  -1.0195  -1.0194  -1.0115  -0.9891  -0.9677
    -0.9573  -0.9535  -0.9475  -0.9368  -0.9328  -0.9255  -0.9119  -0.9006
    -0.8780  -0.8717  -0.8664  -0.8654  -0.8649  -0.8642  -0.8634  -0.8623
    -0.8617  -0.8574  -0.8570  -0.8566  -0.8522  -0.8513  -0.8493  -0.8412
    -0.8396  -0.8064  -0.7933  -0.7235  -0.7224  -0.7028  -0.7011  -0.6934
    -0.6928  -0.6866  -0.6750  -0.6649  -0.6532  -0.6506  -0.6326  -0.6314
    -0.6263  -0.6243  -0.6073  -0.6031  -0.6003  -0.5908  -0.5733  -0.5724
    -0.5717  -0.5703  -0.5676  -0.5673  -0.5666  -0.5498  -0.5081  -0.5056
    -0.4518  -0.4514  -0.4482  -0.4481  -0.4359  -0.4346  -0.4241  -0.4190
    -0.4175  -0.4144  -0.4144  -0.4130  -0.4127  -0.4112  -0.3962  -0.3953
    -0.3952  -0.3883  -0.3778  -0.3774  -0.3631  -0.3622  -0.3294  -0.3141
    -0.3042  -0.3010  -0.3008  -0.2733  -0.2731  -0.2727  -0.2726  -0.2685
    -0.2682  -0.2667  -0.2529  -0.2521  -0.2412  -0.2397  -0.2367  -0.2266
    -0.2259  -0.2256  -0.2254  -0.2244  -0.2229  -0.2220  -0.2181  -0.2039
    -0.2031  -0.2012  -0.2007  -0.1970  -0.1854  -0.1388  -0.1373  -0.1360
    -0.1285  -0.1282  -0.1010  -0.1008  -0.0947  -0.0943  -0.0863  -0.0755
    -0.0753  -0.0691  -0.0686  -0.0682  -0.0633  -0.0291  -0.0209  -0.0194
    -0.0157  -0.0092   0.0037   0.0049   0.0105   0.0110   0.0153   0.0194
     0.0254   0.0254   0.0311   0.0341   0.0354   0.0388   0.0394   0.0487
     0.0507   0.0512   0.0537   0.0579   0.0593   0.0654   0.0686   0.0943
     0.0961   0.1012   0.1231   0.1248   0.1422   0.1563   0.1604   0.1713
     0.1799   0.1957   0.2222   0.2227   0.2264   0.2266   0.2279   0.2297
     0.2444   0.2456   0.2467   0.2511   0.2527   0.2543   0.2550   0.2716
     0.3086   0.3120   0.3186   0.3310   0.3325   0.3475   0.3569   0.3606
     0.3627   0.3644   0.3695   0.3713   0.3728   0.3819   0.3913   0.4100
     0.4120   0.4164   0.4205   0.4248   0.4255   0.4418   0.4739   0.4766
     0.4780   0.4810   0.4814   0.4836   0.4836   0.4920   0.4941   0.5042
     0.5072   0.5181   0.5197   0.5208   0.5237   0.5246   0.5247   0.5255
     0.5290   0.5364   0.5382   0.5386   0.5580   0.5582   0.5831   0.5833
     0.5878   0.5955   0.5961   0.5965   0.6135   0.6161   0.6192   0.6264
     0.6384   0.6391   0.6405   0.6416   0.6423   0.6465   0.6560   0.6578
     0.6663   0.6682   0.6740   0.6774   0.6776   0.6809   0.6825   0.6835
     0.6848   0.6881   0.6952   0.7055   0.7244   0.7319   0.7323   0.7354
     0.7355   0.7362   0.7404   0.7404   0.7454   0.7482   0.7547   0.7732
     0.7736   0.7935   0.7969   0.7996   0.8003   0.8025   0.8040   0.8105
     0.8117   0.8120   0.8403   0.8411   0.8638   0.8642   0.8661   0.8670
     0.8678   0.8800   0.8826   0.8906   0.8925   0.8947   0.8949   0.9009
     0.9128   0.9160   0.9215   0.9256   0.9283   0.9372   0.9379   0.9547
     0.9562   0.9588   0.9611   0.9642   0.9752   0.9828   0.9860   0.9891
[...]
     3.8645   3.8869   3.8889   3.8914   3.9480   3.9604   3.9825   3.9881
     4.0076   4.0130   4.1208   4.1216   4.2047   4.2152   4.2270   4.2850
     4.3526   4.3827   4.5285   4.5431   4.5763   4.6338   4.6970   4.7570
     5.2798   5.3078   5.3158   5.4107   5.5754   5.7548   5.8682   5.9040
     5.9282   5.9418   6.0300   6.0983   6.3501   6.3578   6.3620   6.4362
     6.4376   6.4555   6.4932   6.5188   6.5326   6.5887   6.5909   6.6915
     6.7299   6.7338   6.7776   6.7790   6.9578   6.9589   6.9700   7.0241
     7.1755   7.2161   7.3029   7.3408   7.5262   7.5901   7.6323   7.6691
     7.6710   7.7014   7.7495   7.7660   7.8061   7.8932   7.9617   8.0356
     8.0652   8.1368   8.2008   8.2517   8.2552   8.3146   8.3151   8.3176
     8.3188   8.3335   8.3364   8.4486   8.4619   8.4686   8.5222   8.5370
     8.5632   8.6726   8.6896   8.7551   8.7658   8.7683   8.7829   8.8256
     8.8328   8.8590   8.9797   8.9813   9.0859   9.0894   9.1602   9.2532
     9.3124   9.3173   9.3377   9.3619   9.4472   9.5424   9.5651   9.5784
     9.6066   9.6569   9.7137   9.7358   9.8222  10.0036  10.0350

[...]

          k = 0.2500-0.2165 0.0000 (256316 PWs)   bands (ev):

[...]

          k =-0.5000 0.0000 0.0000 (256496 PWs)   bands (ev):

[...]

          k =-0.5000-0.2165 0.0000 (256328 PWs)   bands (ev):

   -16.7637 -15.7294 -15.6404 -15.6077 -15.3323 -14.9946 -14.9434 -14.8862
   -13.8383 -13.6480 -13.5197 -13.4908 -12.3785 -12.1915 -11.8677 -11.8528
   -11.7168 -11.6686 -11.6530 -11.5666 -11.5169 -11.3226 -11.2438 -11.0629
    -9.8364  -9.7795  -9.6587  -9.5126  -9.1123  -8.7750  -8.6975  -8.6329
    -8.2892  -8.2266  -7.9859  -7.9797  -6.5009  -6.2249  -6.1349  -6.0372
    -5.8435  -5.4865  -5.2958  -5.2071  -5.2023  -5.1977  -5.1965  -5.1949
    -5.0897  -4.9322  -4.7740  -4.7592  -4.6514  -4.5329  -4.4679  -4.4386
    -4.3941  -4.2928  -4.2327  -4.1994  -4.1972  -4.1958  -4.1366  -4.0516
    -4.0444  -3.9880  -3.9850  -3.8900  -3.8609  -3.8396  -3.7358  -3.7189
    -3.5797  -3.5578  -3.5514  -3.5108  -3.5098  -3.4065  -3.3562  -3.3438
    -3.1893  -3.0495  -3.0105  -2.9866  -2.6410  -2.5983  -2.5903  -2.5901
    -2.5858  -2.5827  -2.5537  -2.5495  -2.5047  -2.4988  -2.4563  -2.4528
    -2.2083  -2.1818  -2.1365  -2.1156  -2.1035  -2.0766  -2.0699  -2.0460
    -2.0277  -2.0204  -1.9961  -1.9384  -1.8585  -1.8143  -1.8140  -1.8131
    -1.8116  -1.7663  -1.7642  -1.7130  -1.5785  -1.5531  -1.5506  -1.5376
    -1.5032  -1.5026  -1.5025  -1.5023  -1.4758  -1.4460  -1.4441  -1.4436
    -1.4430  -1.4408  -1.4342  -1.4312  -1.3975  -1.3972  -1.3964  -1.3961
    -1.3909  -1.3907  -1.3901  -1.3899  -1.3672  -1.3672  -1.3670  -1.3670
    -1.3256  -1.3256  -1.3246  -1.3202  -1.3132  -1.2558  -1.2478  -1.2458
    -1.2445  -1.2001  -1.2001  -1.2001  -1.1997  -1.1900  -1.1857  -1.1850
    -1.1822  -1.1535  -1.1432  -1.1428  -1.1392  -1.1312  -1.1303  -1.1286
    -1.1246  -1.1244  -1.1242  -1.1241  -1.1105  -1.0675  -1.0671  -1.0669
    -1.0668  -1.0501  -1.0498  -1.0496  -1.0495  -1.0490  -1.0488  -1.0485
    -1.0483  -1.0051  -0.9599  -0.9391  -0.9012  -0.9010  -0.8999  -0.8989
    -0.8632  -0.8630  -0.8625  -0.8624  -0.8071  -0.8032  -0.7955  -0.7846
    -0.7836  -0.7830  -0.7823  -0.7805  -0.7791  -0.7655  -0.7637  -0.7515
    -0.7157  -0.7127  -0.7123  -0.7086  -0.7038  -0.7030  -0.7023  -0.7018
    -0.6931  -0.6895  -0.6851  -0.6822  -0.6632  -0.6569  -0.6322  -0.6204
    -0.5796  -0.5743  -0.5737  -0.5723  -0.5138  -0.5133  -0.5128  -0.5127
    -0.4749  -0.4726  -0.4654  -0.4643  -0.4464  -0.4458  -0.4453  -0.4441
    -0.4388  -0.4382  -0.4361  -0.4229  -0.4033  -0.4033  -0.4029  -0.4022
    -0.3953  -0.3675  -0.3658  -0.3637  -0.2914  -0.2853  -0.2852  -0.2849
    -0.2834  -0.2693  -0.2690  -0.2689  -0.2688  -0.2573  -0.2559  -0.2517
    -0.2502  -0.1976  -0.1867  -0.1722  -0.1701  -0.1696  -0.1688  -0.1675
    -0.1668  -0.1650  -0.1641  -0.1634  -0.1459  -0.1322  -0.1224  -0.1214
    -0.1211  -0.1200  -0.1194  -0.1116  -0.1107  -0.1099  -0.1096  -0.1072
    -0.1054  -0.1032  -0.1031  -0.0464  -0.0427  -0.0414  -0.0406  -0.0242
    -0.0198  -0.0147  -0.0124  -0.0048   0.0004   0.0253   0.0283   0.0339
     0.0392   0.0653   0.0654   0.0662   0.0675   0.0693   0.0703   0.0723
     0.0783   0.0843   0.0846   0.0869   0.0870   0.0898   0.0948   0.0954
     0.0981   0.0984   0.0986   0.0990   0.1059   0.1121   0.1133   0.1149
     0.1210   0.1396   0.1396   0.1398   0.1400   0.1461   0.1467   0.1474
     0.1479   0.2001   0.2006   0.2008   0.2010   0.2188   0.2293   0.2305
     0.2313   0.2317   0.2338   0.2559   0.2729   0.2837   0.2879   0.2980
     0.3119   0.3125   0.3138   0.3189   0.3320   0.3355   0.3361   0.3364
     0.3368   0.3490   0.3494   0.3499   0.3505   0.3546   0.3550   0.3558
     0.3564   0.3656   0.3681   0.3705   0.3718   0.3953   0.4305   0.4321
     0.4323   0.4330   0.4474   0.4502   0.4516   0.4550   0.4589   0.4594
     0.4597   0.4598   0.4797   0.4806   0.4822   0.4839   0.4964   0.4985
     0.4985   0.4996   0.5265   0.5282   0.5285   0.5329   0.5404   0.5499
     0.5510   0.5533   0.5538   0.5542   0.5544   0.5567   0.5590   0.5607
     0.5618   0.5656   0.5682   0.5682   0.5752   0.5765   0.5848   0.5866
     0.5902   0.5940   0.6232   0.6386   0.6415   0.6471   0.6511   0.6531
     0.6560   0.6591   0.6710   0.6712   0.6728   0.6739   0.6776   0.6803
     0.6988   0.6997   0.7032   0.7079   0.7173   0.7174   0.7179   0.7180
     0.7181   0.7210   0.7216   0.7228   0.7668   0.7675   0.7769   0.7783
     0.7909   0.7975   0.7981   0.7984   0.8009   0.8009   0.8303   0.8337
     0.8339   0.8348   0.8366   0.8527   0.8699   0.8712   0.8714   0.8777
     0.9115   0.9115   0.9119   0.9125   0.9331   0.9337   0.9345   0.9359
     0.9723   0.9798   0.9827   0.9879   0.9931   0.9945   1.0022   1.0036
[...]
     3.9487   4.1795   4.1827   4.1877   4.2042   4.3183   4.3261   4.3274
     4.3381   4.3859   4.4030   4.4044   4.4617   4.4894   4.4897   4.5187
     4.6101   4.7558   4.7749   4.8171   4.8523   5.0028   5.0184   5.0525
     5.0586   5.0727   5.1300   5.1746   5.1913   5.2194   5.2261   5.2443
     5.3041   5.3107   5.4275   5.4413   5.4515   5.4774   5.4803   5.4965
     5.7570   5.7755   5.7766   5.7778   5.9946   6.0102   6.0142   6.0162
     6.6256   6.7498   6.7564   6.7583   6.8083   6.9241   6.9506   6.9531
     7.1128   7.1170   7.1246   7.1255   7.2308   7.3218   7.3248   7.3330
     7.3535   7.3537   7.3622   7.3654   7.3890   7.3957   7.3965   7.4028
     7.7383   7.7608   7.7785   7.7801   8.1439   8.1726   8.1889   8.2027
     8.2127   8.2303   8.2361   8.2501   8.3104   8.3525   8.4118   8.4250
     8.8630   8.8757   8.8964   8.8985   8.9180   8.9196   8.9200   8.9226
     8.9554   8.9598   8.9703   8.9724   9.0977   9.1189   9.1251   9.1341
     9.1351   9.1868   9.3038   9.3154   9.3412   9.3673   9.3875   9.4018
     9.4203   9.5786   9.6018   9.6044   9.6402   9.6952   9.7629

     the Fermi energy is     3.3125 ev

!    total energy              =  -12706.84725985 Ry
     Harris-Foulkes estimate   =  -12706.84725989 Ry
     estimated scf accuracy    <          4.5E-09 Ry

     The total energy is the sum of the following terms:

     one-electron contribution = -109241.34590006 Ry
     hartree contribution      =   55981.43471485 Ry
     xc contribution           =   -4446.47183810 Ry
     ewald contribution        =   45005.89357734 Ry
     Dispersion Correction     =      -2.97438890 Ry
     smearing contrib. (-TS)   =      -3.38342498 Ry

     convergence has been achieved in  46 iterations

     Writing output data file gc.save

     General routines

     Parallel routines

   This run was terminated on:   1: 8: 1  15Mar2017

   JOB DONE.