     Program PWSCF v.5.4.0 starts on  2Feb2018 at  2:32:48

     Current dimensions of program PWSCF are:
     Max number of different atomic species (ntypx) = 10
     Max number of k-points (npk) =  40000
     Max angular momentum in pseudopotentials (lmaxx) =  3
     WARNING: atomic wfc #  2 for atom type 4 has zero norm
     WARNING: atomic wfc #  4 for atom type 4 has zero norm
     WARNING: atomic wfc #  5 for atom type 4 has zero norm

     Parameters for Dispersion Correction:
       atom      VdW radius       C_6

        Cu         2.952        374.666
        C_h        2.744         60.710
        C          2.744         60.710
        O          2.536         24.284

     bravais-lattice index     =            0
     lattice parameter (alat)  =      13.9425  a.u.
     unit-cell volume          =   21209.0878 (a.u.)^3
     number of atoms/cell      =          151
     number of atomic types    =            4
     number of electrons       =      1308.00
     number of Kohn-Sham states=          785
     kinetic-energy cutoff     =      80.0000  Ry
     charge density cutoff     =     320.0000  Ry
     convergence threshold     =      1.0E-08
     mixing beta               =       0.7000
     number of iterations used =            8  local-TF  mixing
     Exchange-correlation      =  SLA  PW   PBX  PBC ( 1  4  3  4 0 0)

     celldm(1)=  13.942539  celldm(2)=   0.000000  celldm(3)=   0.000000
     celldm(4)=   0.000000  celldm(5)=   0.000000  celldm(6)=   0.000000

     crystal axes: (cart. coord. in units of alat)
               a(1) = (   1.000000   0.000000   0.000000 )
               a(2) = (   0.000000   2.309401   0.000000 )
               a(3) = (   0.000000   0.000000   3.388418 )

     reciprocal axes: (cart. coord. in units 2 pi/alat)
               b(1) = (  1.000000  0.000000  0.000000 )
               b(2) = (  0.000000  0.433013  0.000000 )
               b(3) = (  0.000000  0.000000  0.295123 )

     PseudoPot. # 1 for Cu read from file:
     /home/549/hxw549/Short/pseudopotentials/Cu.pbe-n-van_ak.UPF
     MD5 check sum: 601f7c30f7467666bec936e0661ce3e1
     Pseudo is Ultrasoft + core correction, Zval = 11.0
     Generated by new atomic code, or converted to UPF format
     Using radial grid of  867 points,  6 beta functions with:
                l(1) =   0
                l(2) =   0
                l(3) =   1
                l(4) =   1
                l(5) =   2
                l(6) =   2
     Q(r) pseudized with  8 coefficients,  rinner =    1.400   1.400   1.400
                                                       1.400   1.400

     PseudoPot. # 2 for C  read from file:
     /home/549/hxw549/Short/pseudopotentials/C.star1s-pbe-mt_gipaw.UPF
     MD5 check sum: ef0cb3dee31bd9e4ba2a832a2c716264
     Pseudo is Norm-conserving, Zval =  5.0
     Generated by new atomic code, or converted to UPF format
     Using radial grid of 1073 points,  1 beta functions with:
                l(1) =   0

     PseudoPot. # 3 for C  read from file:
     /home/549/hxw549/Short/pseudopotentials/C.pbe-mt_gipaw.UPF
     MD5 check sum: 5ac2f21f2c440b14befe521540822c15
     Pseudo is Norm-conserving, Zval =  4.0
     Generated by new atomic code, or converted to UPF format
     Using radial grid of 1073 points,  1 beta functions with:
                l(1) =   0

     PseudoPot. # 4 for O  read from file:
     /home/549/hxw549/Short/pseudopotentials/O.pbe-van_gipaw.UPF
     MD5 check sum: 5ce2a047509d4f331db576c963e74b29
     Pseudo is Ultrasoft, Zval =  6.0
     Generated by new atomic code, or converted to UPF format
     Using radial grid of 1095 points,  4 beta functions with:
                l(1) =   0
                l(2) =   0
                l(3) =   1
                l(4) =   1
     Q(r) pseudized with 0 coefficients

     atomic species   valence    mass     pseudopotential
        Cu            11.00    63.54600     Cu( 1.00)
        C_h            5.00    12.01070     C ( 1.00)
        C              4.00    12.01070     C ( 1.00)
        O              6.00    15.99940     O ( 1.00)

     No symmetry found

   Cartesian axes

     site n.     atom                  positions (alat units)
         1           Cu  tau(   1) = (   0.0008573  -0.0018351   0.9978221  )
         2           Cu  tau(   2) = (   0.2509084   0.2265501   0.9988819  )
         3           Cu  tau(   3) = (   0.5008508  -0.0019840   0.9975683  )
         4           Cu  tau(   4) = (   0.7507462   0.2262783   0.9983867  )
         5           Cu  tau(   5) = (   0.0009226   0.4569115   0.9995359  )
         6           Cu  tau(   6) = (   0.2509466   0.6897606   1.0003884  )
         7           Cu  tau(   7) = (   0.5007722   0.4569051   0.9997958  )
         8           Cu  tau(   8) = (   0.7508337   0.6899314   1.0007366  )
         9           Cu  tau(   9) = (   0.0008211   0.9242436   1.0005631  )
        10           Cu  tau(  10) = (   0.2510407   1.1587939   0.9997695  )
        11           Cu  tau(  11) = (   0.5010675   0.9243093   1.0009642  )
        12           Cu  tau(  12) = (   0.7507832   1.1585479   1.0002867  )
        13           Cu  tau(  13) = (   0.0008076   1.3920149   0.9981651  )
        14           Cu  tau(  14) = (   0.2508641   1.6229259   0.9968872  )
        15           Cu  tau(  15) = (   0.5009303   1.3917396   0.9986134  )
        16           Cu  tau(  16) = (   0.7508151   1.6234999   0.9965118  )
        17           Cu  tau(  17) = (   0.0010768   1.8521250   0.9962205  )
        18           Cu  tau(  18) = (   0.2506674   2.0802054   0.9970792  )
        19           Cu  tau(  19) = (   0.5006451   1.8527931   0.9957352  )
        20           Cu  tau(  20) = (   0.7510969   2.0800373   0.9962109  )
        21           Cu  tau(  21) = (   0.0009471   0.2250132   1.2487253  )
        22           Cu  tau(  22) = (   0.2507882  -0.0031446   1.2497440  )
        23           Cu  tau(  23) = (   0.5007919   0.2252728   1.2491714  )
        24           Cu  tau(  24) = (   0.7507971  -0.0036897   1.2491278  )
        25           Cu  tau(  25) = (   0.0012713   0.6893980   1.2461710  )
        26           Cu  tau(  26) = (   0.2511689   0.4560768   1.2478036  )
        27           Cu  tau(  27) = (   0.5013541   0.6891833   1.2462003  )
        28           Cu  tau(  28) = (   0.7508430   0.4560683   1.2474521  )
        29           Cu  tau(  29) = (   0.0015975   1.1598104   1.2452581  )
        30           Cu  tau(  30) = (   0.2511932   0.9245903   1.2453945  )
        31           Cu  tau(  31) = (   0.5012471   1.1599306   1.2456365  )
        32           Cu  tau(  32) = (   0.7516486   0.9243255   1.2458244  )
        33           Cu  tau(  33) = (   0.0010131   1.6253539   1.2462781  )
        34           Cu  tau(  34) = (   0.2511431   1.3937977   1.2457308  )
        35           Cu  tau(  35) = (   0.5008404   1.6254812   1.2457260  )
        36           Cu  tau(  36) = (   0.7511009   1.3943200   1.2451525  )
        37           Cu  tau(  37) = (   0.0008426   2.0793482   1.2491166  )
        38           Cu  tau(  38) = (   0.2507133   1.8534255   1.2477591  )
        39           Cu  tau(  39) = (   0.5006933   2.0795606   1.2489990  )
        40           Cu  tau(  40) = (   0.7509172   1.8537366   1.2472554  )
        41           Cu  tau(  41) = (   0.0008611  -0.0043987   1.5029302  )
        42           Cu  tau(  42) = (   0.2512449   0.2256642   1.5010773  )
        43           Cu  tau(  43) = (   0.5006184  -0.0040937   1.5031608  )
        44           Cu  tau(  44) = (   0.7506508   0.2245354   1.4992095  )
        45           Cu  tau(  45) = (   0.0016362   0.4566646   1.4959563  )
        46           Cu  tau(  46) = (   0.2523890   0.6905661   1.4930847  )
        47           Cu  tau(  47) = (   0.5011624   0.4575926   1.4977523  )
        48           Cu  tau(  48) = (   0.7518349   0.6902421   1.4941960  )
        49           Cu  tau(  49) = (   0.0023347   0.9247476   1.4925255  )
        50           Cu  tau(  50) = (   0.2526869   1.1599081   1.4923416  )
        51           Cu  tau(  51) = (   0.5020293   0.9246479   1.4907170  )
        52           Cu  tau(  52) = (   0.7523795   1.1609499   1.4907313  )
        53           Cu  tau(  53) = (   0.0022775   1.3952011   1.4935895  )
        54           Cu  tau(  54) = (   0.2511571   1.6262829   1.4978436  )
        55           Cu  tau(  55) = (   0.5013820   1.3947667   1.4939515  )
        56           Cu  tau(  56) = (   0.7512738   1.6266946   1.4968330  )
        57           Cu  tau(  57) = (   0.0008850   1.8536557   1.5027652  )
        58           Cu  tau(  58) = (   0.2508739   2.0790658   1.5048008  )
        59           Cu  tau(  59) = (   0.5008476   1.8533228   1.5022434  )
        60           Cu  tau(  60) = (   0.7505503   2.0787726   1.5044290  )
[...]
       105           C   tau( 105) = (   0.3344074   0.1002286   2.4714289  )
       106           C   tau( 106) = (   0.3346996   0.2899831   2.5140076  )
       107           C   tau( 107) = (   0.5012815   0.0040445   2.4544666  )
       108           C   tau( 108) = (   0.5015968   0.3851290   2.5349016  )
       109           C   tau( 109) = (   0.6681420   0.1002381   2.4726525  )
       110           C   tau( 110) = (   0.6684547   0.2904654   2.5131399  )
       111           C   tau( 111) = (   0.8345067   0.0035993   2.4576986  )
       112           C   tau( 112) = (   0.8349029   0.3856629   2.5369630  )
       113           C   tau( 113) = (   0.0018811   0.6733068   2.5877646  )
       114           C   tau( 114) = (   0.0016679   0.8678673   2.6011207  )
       115           C   tau( 115) = (   0.1685863   0.5750921   2.5778622  )
       116           C   tau( 116) = (   0.1663861   0.9662559   2.5993949  )
       117           C   tau( 117) = (   0.3352566   0.6695179   2.5928252  )
       118           C   tau( 118) = (   0.3355020   0.8670591   2.5834879  )
       119           C   tau( 119) = (   0.5017990   0.5752781   2.5750147  )
       120           C_h tau( 120) = (   0.5035221   0.9663080   2.6054749  )
       121           C   tau( 121) = (   0.6682909   0.6736338   2.5862785  )
       122           C   tau( 122) = (   0.6682695   0.8677820   2.6039852  )
       123           C   tau( 123) = (   0.8352335   0.5773365   2.5725417  )
       124           C   tau( 124) = (   0.8349689   0.9652527   2.6001355  )
       125           C   tau( 125) = (   0.0010665   1.2552202   2.5666315  )
       126           C   tau( 126) = (   0.0012477   1.4457697   2.5284987  )
       127           C   tau( 127) = (   0.1675581   1.1585448   2.5807218  )
       128           C   tau( 128) = (   0.1679636   1.5404101   2.5050077  )
       129           C   tau( 129) = (   0.3349431   1.2542814   2.5630127  )
       130           C   tau( 130) = (   0.3347897   1.4444110   2.5243447  )
       131           C   tau( 131) = (   0.5020061   1.1584714   2.5841203  )
       132           C   tau( 132) = (   0.5013393   1.5403612   2.5043339  )
       133           C   tau( 133) = (   0.6681619   1.2552363   2.5673588  )
       134           C   tau( 134) = (   0.6680338   1.4454475   2.5275663  )
       135           C   tau( 135) = (   0.8346856   1.1586075   2.5821647  )
       136           C   tau( 136) = (   0.8345324   1.5411140   2.5071397  )
       137           C   tau( 137) = (   0.0010460   1.8278692   2.4511787  )
       138           C   tau( 138) = (   0.0010317   2.0217261   2.4342541  )
       139           C   tau( 139) = (   0.1678685   1.7310290   2.4663119  )
       140           C   tau( 140) = (   0.1675627   2.1197405   2.4349419  )
       141           C   tau( 141) = (   0.3343157   1.8275601   2.4502918  )
       142           C   tau( 142) = (   0.3343711   2.0217622   2.4360008  )
       143           C   tau( 143) = (   0.5010915   1.7307980   2.4646800  )
       144           C   tau( 144) = (   0.5010073   2.1196324   2.4373775  )
       145           C   tau( 145) = (   0.6676447   1.8274733   2.4494839  )
       146           C   tau( 146) = (   0.6675343   2.0216639   2.4345855  )
       147           C   tau( 147) = (   0.8343141   1.7313514   2.4669788  )
       148           C   tau( 148) = (   0.8342927   2.1195700   2.4359499  )
       149           C   tau( 149) = (   0.3364713   0.8554695   2.3059262  )
       150           O   tau( 150) = (   0.4663307   0.9439922   2.2440879  )
       151           O   tau( 151) = (   0.2156522   0.7576010   2.2397108  )

     number of k points=     6  gaussian smearing, width (Ry)=  0.1000
                       cart. coord. in units 2pi/alat
        k(    1) = (   0.0000000   0.0000000   0.0000000), wk =   0.2500000
        k(    2) = (   0.0000000  -0.2165064   0.0000000), wk =   0.2500000
        k(    3) = (   0.2500000   0.0000000   0.0000000), wk =   0.5000000
        k(    4) = (   0.2500000  -0.2165064   0.0000000), wk =   0.5000000
        k(    5) = (  -0.5000000   0.0000000   0.0000000), wk =   0.2500000
        k(    6) = (  -0.5000000  -0.2165064   0.0000000), wk =   0.2500000

     Largest allocated arrays     est. size (Mb)     dimensions
     Largest temporary arrays     est. size (Mb)     dimensions

     Initial potential from superposition of free atoms
     Check: negative starting charge=   -0.001497

     starting charge 1282.31751, renormalised to 1308.00000

     negative rho (up, down):  1.527E-03 0.000E+00
     Starting wfc are 1300 randomized atomic wfcs

     Self-consistent Calculation

     iteration #  1     ecut=    80.00 Ry     beta=0.70
     Davidson diagonalization with overlap
     c_bands:  4 eigenvalues not converged
     c_bands:  5 eigenvalues not converged
     c_bands:  5 eigenvalues not converged
     c_bands:  5 eigenvalues not converged
     c_bands:  5 eigenvalues not converged
     ethr =  1.00E-04,  avg # of iterations = 41.7

     negative rho (up, down):  2.528E+01 0.000E+00

     total energy              =  -10041.18990968 Ry
     Harris-Foulkes estimate   =  -18323.82475022 Ry
     estimated scf accuracy    <  212185.53512397 Ry

     iteration #  2     ecut=    80.00 Ry     beta=0.70
     Davidson diagonalization with overlap
     ethr =  1.00E-02,  avg # of iterations = 14.0

[...]

     iteration # 37     ecut=    80.00 Ry     beta=0.70
     Davidson diagonalization with overlap
     c_bands:  1 eigenvalues not converged
     ethr =  2.71E-10,  avg # of iterations =  5.0

[...]

     total energy              =  -12782.09768338 Ry
     Harris-Foulkes estimate   =  -12782.09768337 Ry
     estimated scf accuracy    <       0.00000001 Ry

     iteration # 42     ecut=    80.00 Ry     beta=0.70
     Davidson diagonalization with overlap
     ethr =  7.88E-13,  avg # of iterations =  3.0

     negative rho (up, down):  1.650E-03 0.000E+00

     End of self-consistent calculation

          k = 0.0000 0.0000 0.0000 (256287 PWs)   bands (ev):

   -20.2663 -18.3934 -16.8156 -15.7956 -15.6151 -14.9810 -14.6165 -14.3612
   -14.2475 -13.8172 -13.7730 -13.6642 -13.6510 -13.0662 -12.9245 -12.7369
   -12.7184 -12.6635 -12.6530 -11.3025 -11.1416 -11.1120 -11.0047 -10.9230
    -9.9322  -9.4271  -9.3886  -9.2387  -9.1669  -8.5450  -8.3890  -8.2308
    -8.1508  -7.6703  -7.4780  -7.4302  -7.2779  -7.1779  -7.1589  -7.1051
    -7.0820  -6.6801  -5.9935  -5.9758  -5.8718  -5.7533  -5.6353  -5.5862
    -5.5487  -5.5254  -5.5098  -5.3566  -5.3330  -5.1952  -5.1213  -4.7647
    -4.5168  -4.5065  -4.3710  -4.2896  -4.2690  -4.2125  -4.0632  -4.0201
    -3.8489  -3.8437  -3.7529  -3.6693  -3.5648  -3.4246  -3.2823  -3.2743
    -3.2658  -3.2623  -3.1984  -3.1201  -3.0710  -3.0353  -2.9289  -2.8846
    -2.8764  -2.8736  -2.8683  -2.8610  -2.8065  -2.6915  -2.6508  -2.6349
    -2.5600  -2.5161  -2.4840  -2.4525  -2.4345  -2.4171  -2.3749  -2.3709
    -2.1972  -2.1641  -2.1623  -2.1576  -2.1455  -2.0646  -2.0605  -2.0332
    -2.0311  -2.0276  -2.0267  -1.9107  -1.8979  -1.8968  -1.8877  -1.8828
    -1.8542  -1.7603  -1.7318  -1.7096  -1.6614  -1.6548  -1.6150  -1.6113
    -1.6069  -1.6044  -1.5980  -1.5888  -1.5762  -1.5616  -1.5349  -1.5262
    -1.5159  -1.5009  -1.4875  -1.4800  -1.4538  -1.4462  -1.4350  -1.4247
    -1.4158  -1.4087  -1.4035  -1.3979  -1.3949  -1.3862  -1.3423  -1.3314
    -1.3195  -1.2940  -1.2354  -1.1866  -1.1821  -1.1790  -1.1725  -1.1670
    -1.1599  -1.1409  -1.1272  -1.1218  -1.0982  -1.0941  -1.0770  -1.0709
    -1.0685  -1.0514  -1.0316  -0.9416  -0.9349  -0.9328  -0.9301  -0.9273
    -0.9236  -0.9178  -0.9161  -0.9105  -0.9046  -0.8993  -0.8975  -0.8934
    -0.8852  -0.8797  -0.8775  -0.8731  -0.8686  -0.8369  -0.8297  -0.8231
    -0.8192  -0.7961  -0.7934  -0.7900  -0.7845  -0.7610  -0.7497  -0.7442
    -0.7401  -0.7359  -0.7359  -0.7333  -0.7318  -0.7300  -0.7278  -0.7245
    -0.7213  -0.7199  -0.7187  -0.7172  -0.7151  -0.7050  -0.6608  -0.6338
    -0.6041  -0.5710  -0.5673  -0.5664  -0.5628  -0.5466  -0.5313  -0.5257
    -0.5152  -0.5135  -0.5038  -0.5005  -0.4976  -0.4931  -0.4875  -0.4768
    -0.4759  -0.4607  -0.4489  -0.4475  -0.4417  -0.4376  -0.4313  -0.4256
    -0.4228  -0.4199  -0.4176  -0.3688  -0.3649  -0.3498  -0.3290  -0.3217
    -0.3187  -0.3083  -0.3028  -0.3003  -0.2981  -0.2964  -0.2950  -0.2907
    -0.2876  -0.2845  -0.2834  -0.2808  -0.2787  -0.2741  -0.2717  -0.2674
    -0.2655  -0.2609  -0.2389  -0.2364  -0.2201  -0.2183  -0.1814  -0.1799
    -0.1727  -0.1705  -0.1690  -0.1686  -0.1493  -0.1484  -0.1481  -0.1418
    -0.1349  -0.1316  -0.1304  -0.1280  -0.1215  -0.1202  -0.1095  -0.1068
    -0.1023  -0.1003  -0.0975  -0.0905  -0.0790  -0.0752  -0.0726  -0.0695
    -0.0657  -0.0645  -0.0449  -0.0255  -0.0207  -0.0137  -0.0080  -0.0009
     0.0012   0.0257   0.0317   0.0403   0.0500   0.0563   0.0603   0.0626
     0.0641   0.0700   0.0748   0.0799   0.0878   0.1015   0.1032   0.1094
     0.1131   0.1161   0.1218   0.1300   0.1372   0.1399   0.1535   0.1554
     0.1577   0.1594   0.1624   0.1662   0.1732   0.1740   0.1755   0.1792
     0.1824   0.1866   0.2012   0.2077   0.2203   0.2220   0.2279   0.2343
     0.2500   0.2513   0.2708   0.2734   0.2837   0.2873   0.2958   0.3036
     0.3138   0.3189   0.3246   0.3305   0.3548   0.3606   0.3667   0.3794
     0.3868   0.4002   0.4066   0.4080   0.4092   0.4191   0.4212   0.4464
     0.4488   0.4693   0.4724   0.4737   0.4754   0.4850   0.4909   0.4936
     0.4993   0.5037   0.5067   0.5136   0.5310   0.5342   0.5497   0.5552
     0.5648   0.5678   0.5752   0.5780   0.5852   0.5889   0.5959   0.5984
     0.6077   0.6132   0.6184   0.6283   0.6332   0.6376   0.6447   0.6458
     0.6494   0.6530   0.6613   0.6645   0.6652   0.6669   0.6681   0.6743
     0.6766   0.6769   0.6845   0.6861   0.6886   0.6928   0.7101   0.7147
     0.7170   0.7222   0.7390   0.7491   0.7512   0.7534   0.7621   0.7665
     0.7667   0.7714   0.7760   0.7798   0.7873   0.7877   0.7902   0.7920
     0.7944   0.7952   0.7969   0.8042   0.8121   0.8181   0.8273   0.8358
     0.8377   0.8390   0.8393   0.8502   0.8503   0.8535   0.8580   0.8634
     0.8684   0.8735   0.8748   0.8775   0.8803   0.8896   0.9091   0.9158
     0.9272   0.9282   0.9318   0.9370   0.9503   0.9571   0.9601   0.9661
     0.9680   0.9745   0.9797   0.9816   0.9832   0.9989   1.0001   1.0020
     1.0042   1.0078   1.0133   1.0236   1.0280   1.0350   1.0388   1.0391
     1.0456   1.0474   1.0489   1.0504   1.0534   1.0596   1.0715   1.0928
[...]
     4.0984   4.1098   4.1158   4.1174   4.1253   4.2104   4.2524   4.2652
     4.2781   4.4749   4.6490   4.8759   4.9800   5.0457   5.2342   5.2598
     5.2744   5.3881   5.4143   5.4365   5.6450   5.6859   5.7434   5.8760
     6.0195   6.0288   6.0562   6.2882   6.2981   6.4155   6.4650   6.4959
     6.5390   6.5685   6.5905   6.6264   6.6619   6.7679   6.7985   6.8388
     6.8573   6.9641   7.0062   7.0303   7.0561   7.0815   7.1471   7.1720
     7.1787   7.2351   7.3500   7.3663   7.4687   7.5012   7.5440   7.5945
     7.6622   7.7684   7.7812   7.8494   7.9189   8.0834   8.1111   8.1836
     8.1880   8.2323   8.2649   8.2818   8.3668   8.3672   8.4197   8.4411
     8.4473   8.4573   8.5671   8.5860   8.6559   8.6657   8.6702   8.6765
     8.7325   8.7725   8.8066   8.8316   8.8748   8.8779   8.9081   8.9326
     8.9881   9.0573   9.1079   9.1216   9.1864   9.1933   9.2507   9.3837
     9.4338   9.4609   9.4876   9.5164   9.5285   9.5472   9.6059   9.6857
     9.7195   9.7764   9.8167   9.9403  10.0684  10.1510  10.1518  10.1869
    10.2131

[...]

          k = 0.2500-0.2165 0.0000 (256316 PWs)   bands (ev):

[...]

          k =-0.5000 0.0000 0.0000 (256496 PWs)   bands (ev):

[...]

          k =-0.5000-0.2165 0.0000 (256328 PWs)   bands (ev):

   -20.2662 -18.3938 -16.7001 -15.5218 -15.3699 -15.3458 -14.9288 -14.7868
   -14.7101 -14.6704 -13.6443 -13.4318 -13.3069 -13.2647 -12.2506 -12.0221
   -11.5871 -11.5433 -11.5262 -11.3957 -11.3189 -11.2508 -11.1098 -11.0974
   -10.9884 -10.9693  -9.6305  -9.6123  -9.3675  -9.3223  -8.8936  -8.5416
    -8.4481  -8.3974  -7.9195  -7.8878  -7.6855  -7.6731  -6.7191  -6.2243
    -5.9176  -5.8176  -5.6403  -5.5128  -5.2962  -5.1979  -5.1091  -5.0458
    -5.0408  -5.0265  -4.9926  -4.9858  -4.9363  -4.9317  -4.7459  -4.5483
    -4.5297  -4.1684  -4.0732  -4.0617  -4.0536  -4.0517  -4.0442  -4.0087
    -3.9986  -3.9520  -3.9389  -3.9248  -3.8444  -3.7848  -3.7278  -3.7222
    -3.5286  -3.5034  -3.4982  -3.3679  -3.3574  -3.3479  -3.3302  -3.3072
    -3.3042  -3.1651  -3.1262  -3.1139  -3.1053  -3.1042  -2.8548  -2.6667
    -2.6400  -2.5278  -2.4608  -2.4569  -2.4521  -2.4476  -2.4460  -2.4383
    -2.4171  -2.3506  -2.3354  -2.2758  -2.1078  -2.0726  -1.9558  -1.9509
    -1.9491  -1.9465  -1.9440  -1.9336  -1.9244  -1.8754  -1.8064  -1.7463
    -1.7283  -1.6819  -1.6798  -1.6783  -1.6742  -1.6650  -1.5090  -1.4751
    -1.4720  -1.4640  -1.4549  -1.3854  -1.3793  -1.3763  -1.3734  -1.3717
    -1.3704  -1.3655  -1.3301  -1.3252  -1.3201  -1.3074  -1.3070  -1.2809
    -1.2749  -1.2680  -1.2622  -1.2562  -1.2538  -1.2507  -1.2501  -1.2427
    -1.2399  -1.2384  -1.2364  -1.2239  -1.1923  -1.1903  -1.1757  -1.1646
    -1.1581  -1.1454  -1.1340  -1.1027  -1.0879  -1.0845  -1.0799  -1.0694
    -1.0635  -1.0619  -1.0533  -1.0412  -1.0314  -1.0294  -1.0237  -1.0168
    -1.0160  -1.0135  -1.0059  -1.0017  -0.9981  -0.9961  -0.9917  -0.9830
    -0.9778  -0.9570  -0.9547  -0.9472  -0.9470  -0.9405  -0.9389  -0.9333
    -0.9251  -0.9220  -0.9123  -0.9103  -0.9091  -0.9068  -0.9018  -0.8929
    -0.8061  -0.7725  -0.7623  -0.7517  -0.7491  -0.7455  -0.7443  -0.7389
    -0.7378  -0.7335  -0.7315  -0.6855  -0.6644  -0.6636  -0.6560  -0.6528
    -0.6489  -0.6408  -0.6386  -0.6349  -0.6347  -0.6322  -0.6249  -0.6109
    -0.5853  -0.5798  -0.5792  -0.5776  -0.5631  -0.5570  -0.5565  -0.5533
    -0.5507  -0.5349  -0.5167  -0.5129  -0.4406  -0.4358  -0.4319  -0.4207
    -0.4191  -0.4180  -0.4171  -0.4023  -0.3803  -0.3758  -0.3742  -0.3734
    -0.3319  -0.3310  -0.3291  -0.3241  -0.3124  -0.3083  -0.3064  -0.3030
    -0.2816  -0.2799  -0.2717  -0.2697  -0.2609  -0.2546  -0.2421  -0.2397
    -0.2053  -0.1927  -0.1809  -0.1760  -0.1721  -0.1684  -0.1559  -0.1516
    -0.1408  -0.1405  -0.1362  -0.1350  -0.1247  -0.1219  -0.1189  -0.1132
    -0.0932  -0.0638  -0.0595  -0.0562  -0.0495  -0.0486  -0.0469  -0.0454
    -0.0352  -0.0340  -0.0293  -0.0272  -0.0257  -0.0124  -0.0099  -0.0078
    -0.0042   0.0109   0.0135   0.0179   0.0198   0.0239   0.0257   0.0265
     0.0291   0.0788   0.0859   0.0879   0.0918   0.0943   0.1092   0.1430
     0.1499   0.1525   0.1604   0.1661   0.1672   0.1680   0.1684   0.1755
     0.1766   0.1829   0.1841   0.1895   0.1970   0.2035   0.2065   0.2107
     0.2147   0.2156   0.2168   0.2189   0.2249   0.2266   0.2283   0.2297
     0.2312   0.2325   0.2341   0.2353   0.2433   0.2566   0.2618   0.2664
     0.2697   0.2746   0.2851   0.2880   0.2911   0.3023   0.3127   0.3174
     0.3178   0.3203   0.3295   0.3302   0.3497   0.3532   0.3595   0.3619
     0.3640   0.3669   0.4042   0.4216   0.4302   0.4332   0.4389   0.4421
     0.4534   0.4556   0.4685   0.4712   0.4797   0.4831   0.4897   0.4936
     0.5081   0.5094   0.5123   0.5140   0.5177   0.5206   0.5509   0.5628
     0.5663   0.5714   0.5725   0.5744   0.5759   0.5770   0.5777   0.5805
     0.5816   0.5833   0.5894   0.5947   0.6036   0.6076   0.6120   0.6164
     0.6180   0.6245   0.6270   0.6311   0.6494   0.6518   0.6554   0.6600
     0.6649   0.6704   0.6721   0.6788   0.6830   0.6886   0.6898   0.6905
     0.6921   0.6943   0.7020   0.7074   0.7124   0.7178   0.7232   0.7256
     0.7308   0.7350   0.7364   0.7379   0.7418   0.7459   0.7478   0.7538
     0.7648   0.7781   0.7829   0.7855   0.7895   0.7912   0.7972   0.8004
     0.8050   0.8072   0.8133   0.8212   0.8289   0.8348   0.8368   0.8392
     0.8411   0.8436   0.8476   0.8498   0.8528   0.8566   0.8623   0.8655
     0.8698   0.8885   0.8900   0.8941   0.8993   0.9178   0.9184   0.9261
     0.9269   0.9325   0.9516   0.9520   0.9598   0.9685   0.9713   0.9758
     0.9777   0.9792   0.9817   0.9978   1.0071   1.0145   1.0308   1.0376
     1.0378   1.0410   1.0453   1.0479   1.0592   1.0781   1.0848   1.0872
[...]
     4.4525   4.5784   4.5936   4.6095   4.6762   4.7609   4.7820   4.7853
     4.8129   4.8292   5.0822   5.1328   5.1333   5.2116   5.2194   5.2315
     5.2489   5.2903   5.2966   5.3135   5.3194   5.3461   5.3675   5.4205
     5.4527   5.5035   5.5187   5.5524   5.6912   5.6996   5.7033   5.7990
     5.8203   5.8349   5.8497   5.8550   5.8848   5.9853   5.9931   6.0274
     6.5320   6.6992   6.7881   6.8041   7.0228   7.0348   7.1046   7.1090
     7.1453   7.1697   7.1781   7.1869   7.2051   7.2231   7.2278   7.2694
     7.3329   7.3429   7.4481   7.4701   7.4837   7.4879   7.5545   7.5688
     7.7158   7.8301   7.9093   7.9881   7.9944   8.1190   8.1838   8.2012
     8.2482   8.2913   8.3075   8.3264   8.3892   8.4147   8.4344   8.4384
     8.5710   8.6759   8.9218   8.9352   8.9386   8.9471   9.0000   9.0038
     9.0157   9.0402   9.0571   9.0882   9.1202   9.1416   9.1612   9.1628
     9.1862   9.1975   9.3601   9.3670   9.3888   9.3985   9.4749   9.4848
     9.5077   9.5205   9.5514   9.6296   9.7888   9.8044   9.9172  10.0252
    10.0328

     the Fermi energy is     3.4220 ev

!    total energy              =  -12782.09768336 Ry
     Harris-Foulkes estimate   =  -12782.09768338 Ry
     estimated scf accuracy    <          1.8E-09 Ry

     The total energy is the sum of the following terms:

     one-electron contribution = -100636.15324540 Ry
     hartree contribution      =   51693.12221964 Ry
     xc contribution           =   -4463.87892231 Ry
     ewald contribution        =   40631.01836689 Ry
     Dispersion Correction     =      -2.81437964 Ry
     smearing contrib. (-TS)   =      -3.39172256 Ry

     convergence has been achieved in  42 iterations

     Writing output data file gc.save

     General routines

     Parallel routines

   This run was terminated on:   9:54:16   2Feb2018

   JOB DONE.