     Program PWSCF v.5.4.0 starts on  8Sep2017 at 15: 2: 5

     Current dimensions of program PWSCF are:
     Max number of different atomic species (ntypx) = 10
     Max number of k-points (npk) =  40000
     Max angular momentum in pseudopotentials (lmaxx) =  3
     WARNING: atomic wfc #  2 for atom type 4 has zero norm
     WARNING: atomic wfc #  4 for atom type 4 has zero norm
     WARNING: atomic wfc #  5 for atom type 4 has zero norm

     Parameters for Dispersion Correction:
       atom      VdW radius       C_6

        Cu         2.952        374.666
        C_h        2.744         60.710
        C          2.744         60.710
        O          2.536         24.284
        H          1.892          4.857

     bravais-lattice index     =            0
     lattice parameter (alat)  =      13.9425  a.u.
     unit-cell volume          =   21209.0878 (a.u.)^3
     number of atoms/cell      =          136
     number of atomic types    =            5
     number of electrons       =      1226.00
     number of Kohn-Sham states=          736
     kinetic-energy cutoff     =      80.0000  Ry
     charge density cutoff     =     320.0000  Ry
     convergence threshold     =      1.0E-08
     mixing beta               =       0.7000
     number of iterations used =            8  local-TF  mixing
     Exchange-correlation      =  SLA  PW   PBE  PBE ( 1  4  3  4 0 0)

     celldm(1)=  13.942539  celldm(2)=   0.000000  celldm(3)=   0.000000
     celldm(4)=   0.000000  celldm(5)=   0.000000  celldm(6)=   0.000000

     crystal axes: (cart. coord. in units of alat)
               a(1) = (   1.000000   0.000000   0.000000 )
               a(2) = (   0.000000   2.309401   0.000000 )
               a(3) = (   0.000000   0.000000   3.388418 )

     reciprocal axes: (cart. coord. in units 2 pi/alat)
               b(1) = (  1.000000  0.000000  0.000000 )
               b(2) = (  0.000000  0.433013  0.000000 )
               b(3) = (  0.000000  0.000000  0.295123 )

     PseudoPot. # 1 for Cu read from file:
     /home/549/hxw549/Short/pseudopotentials/Cu.pbe-n-van_ak.UPF
     MD5 check sum: 601f7c30f7467666bec936e0661ce3e1
     Pseudo is Ultrasoft + core correction, Zval = 11.0
     Generated by new atomic code, or converted to UPF format
     Using radial grid of  867 points,  6 beta functions with:
                l(1) =   0
                l(2) =   0
                l(3) =   1
                l(4) =   1
                l(5) =   2
                l(6) =   2
     Q(r) pseudized with  8 coefficients,  rinner =    1.400   1.400   1.400
                                                       1.400   1.400

     PseudoPot. # 2 for C  read from file:
     /home/549/hxw549/Short/pseudopotentials/C.star1s-pbe-mt_gipaw.UPF
     MD5 check sum: ef0cb3dee31bd9e4ba2a832a2c716264
     Pseudo is Norm-conserving, Zval =  5.0
     Generated by new atomic code, or converted to UPF format
     Using radial grid of 1073 points,  1 beta functions with:
                l(1) =   0

     PseudoPot. # 3 for C  read from file:
     /home/549/hxw549/Short/pseudopotentials/C.pbe-mt_gipaw.UPF
     MD5 check sum: 5ac2f21f2c440b14befe521540822c15
     Pseudo is Norm-conserving, Zval =  4.0
     Generated by new atomic code, or converted to UPF format
     Using radial grid of 1073 points,  1 beta functions with:
                l(1) =   0

     PseudoPot. # 4 for O  read from file:
     /home/549/hxw549/Short/pseudopotentials/O.pbe-van_gipaw.UPF
     MD5 check sum: 5ce2a047509d4f331db576c963e74b29
     Pseudo is Ultrasoft, Zval =  6.0
     Generated by new atomic code, or converted to UPF format
     Using radial grid of 1095 points,  4 beta functions with:
                l(1) =   0
                l(2) =   0
                l(3) =   1
                l(4) =   1
     Q(r) pseudized with 0 coefficients

     PseudoPot. # 5 for H  read from file:
     /home/549/hxw549/Short/pseudopotentials/H.pbe-van_ak.UPF
     MD5 check sum: 077eb6d537518a38cb46c6de387227b7
     Pseudo is Ultrasoft, Zval =  1.0
     Generated by new atomic code, or converted to UPF format
     Using radial grid of  615 points,  1 beta functions with:
                l(1) =   0
     Q(r) pseudized with  8 coefficients,  rinner =    0.800

     atomic species   valence    mass     pseudopotential
        Cu            11.00    63.54600     Cu( 1.00)
        C_h            5.00    12.01070     C ( 1.00)
        C              4.00    12.01070     C ( 1.00)
        O              6.00    15.99940     O ( 1.00)
        H              1.00     1.00783     H ( 1.00)

      2 Sym. Ops. (no inversion) found

   Cartesian axes

     site n.     atom                  positions (alat units)
         1           Cu  tau(   1) = (   0.0000000  -0.0001124   1.0011868  )
         2           Cu  tau(   2) = (   0.2499898   0.2314890   1.0028858  )
         3           Cu  tau(   3) = (   0.5000000  -0.0001538   1.0011207  )
         4           Cu  tau(   4) = (   0.7500102   0.2314890   1.0028858  )
         5           Cu  tau(   5) = (   0.0000000   0.4622551   1.0053524  )
         6           Cu  tau(   6) = (   0.2500088   0.6924579   1.0058364  )
         7           Cu  tau(   7) = (   0.5000000   0.4622629   1.0051606  )
         8           Cu  tau(   8) = (   0.7499912   0.6924579   1.0058364  )
         9           Cu  tau(   9) = (   0.0000000   0.9231945   1.0037099  )
        10           Cu  tau(  10) = (   0.2501144   1.1547114   1.0017292  )
        11           Cu  tau(  11) = (   0.5000000   0.9229888   1.0040738  )
        12           Cu  tau(  12) = (   0.7498856   1.1547114   1.0017292  )
        13           Cu  tau(  13) = (   0.0000000   1.3863962   1.0012899  )
        14           Cu  tau(  14) = (   0.2500136   1.6173447   1.0021190  )
        15           Cu  tau(  15) = (   0.5000000   1.3867257   1.0015878  )
        16           Cu  tau(  16) = (   0.7499864   1.6173447   1.0021190  )
        17           Cu  tau(  17) = (   0.0000000   1.8473422   1.0020731  )
        18           Cu  tau(  18) = (   0.2500067   2.0777255   1.0012575  )
        19           Cu  tau(  19) = (   0.5000000   1.8472488   1.0019769  )
        20           Cu  tau(  20) = (   0.7499933   2.0777255   1.0012575  )
        21           Cu  tau(  21) = (   0.0000000   0.2290971   1.2510133  )
        22           Cu  tau(  22) = (   0.2500654  -0.0010279   1.2492517  )
        23           Cu  tau(  23) = (   0.5000000   0.2291363   1.2509787  )
        24           Cu  tau(  24) = (   0.7499346  -0.0010279   1.2492517  )
        25           Cu  tau(  25) = (   0.0000000   0.6932770   1.2534390  )
        26           Cu  tau(  26) = (   0.2500647   0.4607032   1.2532007  )
        27           Cu  tau(  27) = (   0.5000000   0.6927500   1.2537658  )
        28           Cu  tau(  28) = (   0.7499353   0.4607032   1.2532007  )
        29           Cu  tau(  29) = (   0.0000000   1.1559961   1.2495084  )
        30           Cu  tau(  30) = (   0.2500511   0.9251246   1.2516105  )
        31           Cu  tau(  31) = (   0.5000000   1.1560617   1.2496092  )
        32           Cu  tau(  32) = (   0.7499489   0.9251246   1.2516105  )
        33           Cu  tau(  33) = (   0.0000000   1.6169015   1.2499722  )
        34           Cu  tau(  34) = (   0.2500720   1.3863550   1.2492996  )
        35           Cu  tau(  35) = (   0.5000000   1.6173459   1.2506856  )
        36           Cu  tau(  36) = (   0.7499280   1.3863550   1.2492996  )
        37           Cu  tau(  37) = (   0.0000000   2.0785906   1.2492456  )
        38           Cu  tau(  38) = (   0.2500782   1.8481473   1.2503424  )
        39           Cu  tau(  39) = (   0.5000000   2.0786197   1.2492262  )
        40           Cu  tau(  40) = (   0.7499218   1.8481473   1.2503424  )
        41           Cu  tau(  41) = (   0.0000000  -0.0018773   1.5009156  )
        42           Cu  tau(  42) = (   0.2502427   0.2272264   1.5012140  )
        43           Cu  tau(  43) = (   0.5000000  -0.0019371   1.5013637  )
        44           Cu  tau(  44) = (   0.7497573   0.2272264   1.5012140  )
        45           Cu  tau(  45) = (   0.0000000   0.4594394   1.5003477  )
        46           Cu  tau(  46) = (   0.2502570   0.6942932   1.5009157  )
        47           Cu  tau(  47) = (   0.5000000   0.4586584   1.5016837  )
        48           Cu  tau(  48) = (   0.7497430   0.6942932   1.5009157  )
        49           Cu  tau(  49) = (   0.0000000   0.9268538   1.5010944  )
        50           Cu  tau(  50) = (   0.2498040   1.1568891   1.5005333  )
        51           Cu  tau(  51) = (   0.5000000   0.9268357   1.5007380  )
        52           Cu  tau(  52) = (   0.7501960   1.1568891   1.5005333  )
        53           Cu  tau(  53) = (   0.0000000   1.3863456   1.5003872  )
        54           Cu  tau(  54) = (   0.2501219   1.6169806   1.4997659  )
        55           Cu  tau(  55) = (   0.5000000   1.3861347   1.5004185  )
        56           Cu  tau(  56) = (   0.7498781   1.6169806   1.4997659  )
        57           Cu  tau(  57) = (   0.0000000   1.8484356   1.4996601  )
        58           Cu  tau(  58) = (   0.2501193   2.0791885   1.5009757  )
        59           Cu  tau(  59) = (   0.5000000   1.8497941   1.5008599  )
        60           Cu  tau(  60) = (   0.7498807   2.0791885   1.5009757  )
[...]
       105           C   tau( 105) = (   0.3323314   0.0914664   2.3568410  )
       106           C   tau( 106) = (   0.3327992   0.2862247   2.3713917  )
       107           C   tau( 107) = (   0.5000000  -0.0021686   2.3289559  )
       108           C   tau( 108) = (   0.5000000   0.3827790   2.3739144  )
       109           C   tau( 109) = (   0.6676686   0.0914664   2.3568410  )
       110           C   tau( 110) = (   0.6672008   0.2862247   2.3713917  )
       111           C   tau( 111) = (   0.8332794  -0.0023221   2.3640252  )
       112           C   tau( 112) = (   0.8335900   0.3825093   2.3845947  )
       113           C   tau( 113) = (   0.0000000   0.6729687   2.3904796  )
       114           C   tau( 114) = (   0.0000000   0.8667256   2.3839038  )
       115           C   tau( 115) = (   0.1664436   0.5763749   2.3885814  )
       116           C   tau( 116) = (   0.1666136   0.9632494   2.3785655  )
       117           C   tau( 117) = (   0.3331423   0.6729953   2.3846639  )
       118           C   tau( 118) = (   0.3331577   0.8667554   2.3808818  )
       119           C   tau( 119) = (   0.5000000   0.5763623   2.3826941  )
       120           C_h tau( 120) = (   0.5000000   0.9631968   2.3749681  )
       121           C   tau( 121) = (   0.6668577   0.6729953   2.3846639  )
       122           C   tau( 122) = (   0.6668423   0.8667554   2.3808818  )
       123           C   tau( 123) = (   0.8335564   0.5763749   2.3885814  )
       124           C   tau( 124) = (   0.8333864   0.9632494   2.3785655  )
       125           C   tau( 125) = (   0.0000000   1.2526117   2.3627777  )
       126           C   tau( 126) = (   0.1665410   1.1586079   2.3669448  )
       127           C   tau( 127) = (   0.3335017   1.2516977   2.3567510  )
       128           C   tau( 128) = (   0.5000000   1.1584676   2.3662578  )
       129           C   tau( 129) = (   0.6664983   1.2516977   2.3567510  )
       130           C   tau( 130) = (   0.8334590   1.1586079   2.3669448  )
       131           H   tau( 131) = (   0.1664277  -0.1503820   2.3577150  )
       132           H   tau( 132) = (   0.5000000  -0.1496242   2.3442672  )
       133           H   tau( 133) = (   0.8335723  -0.1503820   2.3577150  )
       134           H   tau( 134) = (   0.0000000   1.4008679   2.3643044  )
       135           H   tau( 135) = (   0.3334167   1.3998201   2.3514427  )
       136           H   tau( 136) = (   0.6665833   1.3998201   2.3514427  )

     number of k points=     6  gaussian smearing, width (Ry)=  0.1000
                       cart. coord. in units 2pi/alat
        k(    1) = (   0.0000000   0.0000000   0.0000000), wk =   0.2500000
        k(    2) = (   0.0000000  -0.2165064   0.0000000), wk =   0.2500000
        k(    3) = (   0.2500000   0.0000000   0.0000000), wk =   0.5000000
        k(    4) = (   0.2500000  -0.2165064   0.0000000), wk =   0.5000000
        k(    5) = (  -0.5000000   0.0000000   0.0000000), wk =   0.2500000
        k(    6) = (  -0.5000000  -0.2165064   0.0000000), wk =   0.2500000

     Largest allocated arrays     est. size (Mb)     dimensions
     Largest temporary arrays     est. size (Mb)     dimensions

     Initial potential from superposition of free atoms
     Check: negative starting charge=   -0.002209

     starting charge 1209.81748, renormalised to 1226.00000

     negative rho (up, down):  2.239E-03 0.000E+00
     Starting wfc are 1146 randomized atomic wfcs

     Self-consistent Calculation

     iteration #  1     ecut=    80.00 Ry     beta=0.70
     Davidson diagonalization with overlap
     ethr =  1.00E-04,  avg # of iterations = 20.0

     negative rho (up, down):  2.845E+01 0.000E+00

     total energy              =   -8248.45489113 Ry
     Harris-Foulkes estimate   =  -15003.61740979 Ry
     estimated scf accuracy    <  148115.31910614 Ry

     iteration #  2     ecut=    80.00 Ry     beta=0.70
     Davidson diagonalization with overlap
     c_bands:  3 eigenvalues not converged
     ethr =  1.00E-02,  avg # of iterations = 14.2

[...]

     iteration # 38     ecut=    80.00 Ry     beta=0.70
     Davidson diagonalization with overlap
     c_bands:  1 eigenvalues not converged
     ethr =  6.27E-08,  avg # of iterations = 10.8

[...]

     total energy              =  -12508.59249477 Ry
     Harris-Foulkes estimate   =  -12508.59249474 Ry
     estimated scf accuracy    <       0.00000006 Ry

     iteration # 49     ecut=    80.00 Ry     beta=0.70
     Davidson diagonalization with overlap
     ethr =  5.21E-12,  avg # of iterations =  2.7

     negative rho (up, down):  2.448E-03 0.000E+00

     End of self-consistent calculation

          k = 0.0000 0.0000 0.0000 (256287 PWs)   bands (ev):

   -17.6702 -16.4351 -15.4660 -15.2578 -15.0567 -14.4398 -14.3263 -14.1355
   -13.4268 -13.3694 -12.7956 -12.2783 -12.2599 -11.1253 -10.9089 -10.2341
    -9.9234  -9.7513  -9.1337  -8.9597  -8.5504  -8.0106  -7.9472  -7.8214
    -7.6223  -7.1582  -7.0134  -6.5750  -6.4434  -6.1927  -6.0760  -6.0511
    -6.0269  -5.9970  -5.9016  -5.7737  -5.3883  -5.1085  -4.9182  -4.8568
    -4.8030  -4.6443  -4.5443  -4.5186  -4.2515  -4.1820  -3.9655  -3.9640
    -3.9161  -3.8777  -3.7738  -3.7280  -3.6259  -3.5968  -3.5867  -3.5711
    -3.5608  -3.5576  -3.5289  -3.4640  -3.3835  -3.3268  -3.2874  -3.2632
    -3.2172  -3.1660  -3.0868  -3.0493  -2.9538  -2.9040  -2.9006  -2.8457
    -2.7959  -2.7591  -2.7492  -2.7123  -2.7110  -2.7083  -2.7066  -2.5962
    -2.5925  -2.5851  -2.5795  -2.5750  -2.5549  -2.5200  -2.5123  -2.4096
    -2.4012  -2.3431  -2.3299  -2.3082  -2.3027  -2.2944  -2.2854  -2.2405
    -2.2378  -2.2187  -2.2168  -2.2115  -2.1905  -2.1429  -2.1393  -2.1352
    -2.1349  -2.1136  -2.1044  -2.0900  -2.0791  -2.0740  -2.0721  -2.0247
    -2.0161  -1.9901  -1.9816  -1.9667  -1.9337  -1.9155  -1.8763  -1.8697
    -1.8619  -1.8473  -1.8375  -1.8245  -1.8108  -1.7751  -1.7731  -1.7583
    -1.7486  -1.7345  -1.7229  -1.6899  -1.6712  -1.6195  -1.6167  -1.6085
    -1.6032  -1.6028  -1.6013  -1.5971  -1.5948  -1.5896  -1.5872  -1.5843
    -1.5784  -1.5703  -1.5686  -1.5622  -1.5529  -1.5199  -1.5075  -1.5062
    -1.4994  -1.4882  -1.4852  -1.4817  -1.4401  -1.4375  -1.4328  -1.4291
    -1.4257  -1.4227  -1.4225  -1.4179  -1.4131  -1.4130  -1.4106  -1.4093
    -1.4066  -1.4045  -1.4022  -1.4012  -1.3963  -1.3578  -1.3518  -1.2991
    -1.2660  -1.2618  -1.2539  -1.2464  -1.2446  -1.2323  -1.2098  -1.2070
    -1.1947  -1.1880  -1.1841  -1.1750  -1.1746  -1.1683  -1.1601  -1.1360
    -1.1332  -1.1258  -1.1240  -1.1228  -1.1225  -1.1178  -1.1111  -1.1109
    -1.1055  -1.0641  -1.0562  -1.0140  -1.0091  -1.0060  -1.0018  -0.9995
    -0.9902  -0.9876  -0.9849  -0.9774  -0.9759  -0.9712  -0.9697  -0.9672
    -0.9664  -0.9656  -0.9625  -0.9589  -0.9556  -0.9536  -0.9523  -0.9370
    -0.9139  -0.9099  -0.8784  -0.8667  -0.8653  -0.8642  -0.8583  -0.8375
    -0.8358  -0.8339  -0.8310  -0.8283  -0.8213  -0.8167  -0.8109  -0.8089
    -0.8040  -0.7987  -0.7972  -0.7923  -0.7898  -0.7887  -0.7827  -0.7808
    -0.7773  -0.7771  -0.7659  -0.7632  -0.7540  -0.7497  -0.7411  -0.7193
    -0.7146  -0.6924  -0.6919  -0.6889  -0.6886  -0.6611  -0.6545  -0.6432
    -0.6420  -0.6338  -0.6306  -0.6300  -0.6276  -0.6265  -0.6264  -0.6176
    -0.5982  -0.5901  -0.5828  -0.5779  -0.5771  -0.5749  -0.5667  -0.5516
    -0.5502  -0.5465  -0.5443  -0.5433  -0.5284  -0.5254  -0.5227  -0.5220
    -0.5196  -0.5144  -0.5143  -0.5112  -0.5087  -0.5079  -0.4971  -0.4843
    -0.4830  -0.4721  -0.4699  -0.4509  -0.4418  -0.4319  -0.4214  -0.4051
    -0.4027  -0.3875  -0.3780  -0.3463  -0.3416  -0.3400  -0.3285  -0.3273
    -0.3169  -0.3167  -0.3108  -0.3097  -0.3046  -0.3000  -0.2951  -0.2934
    -0.2811  -0.2746  -0.2377  -0.2375  -0.2369  -0.2293  -0.2248  -0.2166
    -0.2143  -0.1995  -0.1991  -0.1937  -0.1926  -0.1891  -0.1801  -0.1578
    -0.1515  -0.1440  -0.1407  -0.1401  -0.1311  -0.1281  -0.0989  -0.0973
    -0.0955  -0.0854  -0.0825  -0.0808  -0.0764  -0.0685  -0.0647  -0.0611
    -0.0602  -0.0548  -0.0460  -0.0444  -0.0444  -0.0381  -0.0347  -0.0315
    -0.0312  -0.0271  -0.0238  -0.0225  -0.0175  -0.0132  -0.0052  -0.0043
     0.0130   0.0262   0.0291   0.0308   0.0346   0.0373   0.0402   0.0628
     0.0709   0.0732   0.0737   0.0770   0.0818   0.0822   0.0847   0.0872
     0.1021   0.1051   0.1087   0.1120   0.1137   0.1147   0.1179   0.1197
     0.1225   0.1250   0.1384   0.1393   0.1449   0.1550   0.1561   0.1647
     0.1692   0.1712   0.1714   0.1751   0.1825   0.1829   0.1901   0.1903
     0.2031   0.2298   0.2337   0.2390   0.2420   0.2427   0.2450   0.2546
     0.2568   0.2793   0.2835   0.2878   0.2903   0.3034   0.3035   0.3121
     0.3162   0.3166   0.3221   0.3235   0.3250   0.3369   0.3395   0.3438
     0.3462   0.3530   0.3553   0.3627   0.3640   0.3702   0.3836   0.3881
     0.3945   0.4039   0.4084   0.4103   0.4135   0.4203   0.4232   0.4317
     0.4348   0.4375   0.4381   0.4413   0.4423   0.4464   0.4505   0.4556
     0.4571   0.4595   0.4648   0.4676   0.4744   0.4809   0.4836   0.4939
     0.4980   0.5028   0.5062   0.5089   0.5164   0.5217   0.5279   0.5285
     0.5355   0.5359   0.5382   0.5399   0.5422   0.5460   0.5477   0.5572
[...]
     2.6666   2.8873   2.9633   3.0206   3.2057   3.2273   3.2633   3.2835
     3.2847   3.2928   3.3347   3.3670   3.4018   3.4118   3.4130   3.4396
     3.4514   3.4520   3.4951   3.5422   3.6464   3.6529   3.7412   3.7549
     3.8449   4.2127   4.3111   4.3867   4.4786   4.6989   4.7121   4.7705
     5.0395   5.0566   5.1182   5.1888   5.2512   5.3369   5.3814   5.6255
     5.6355   5.6738   5.7606   5.8176   5.8779   5.9037   5.9076   6.0357
     6.0460   6.0945   6.1170   6.1699   6.2031   6.2342   6.3014   6.3240
     6.4200   6.4655   6.5043   6.5870   6.6962   6.7755   6.7800   6.8190
     7.0441   7.0721   7.0761   7.1128   7.1352   7.1702   7.1835   7.3227
     7.3814   7.4856   7.5243   7.5400   7.5682   7.7201   7.7586   7.7651
     7.7714   7.7842   7.8272   7.8639   7.8874   7.9595   7.9752   7.9997
     8.0191   8.1047   8.1092   8.1615   8.1999   8.2295   8.2366   8.2517
     8.2661   8.2815   8.3041   8.3562   8.4110   8.4388   8.5189   8.5870
     8.6016   8.6585   8.7605   8.7713   8.7991   8.9831   9.0062   9.0218
     9.1067   9.1209   9.1574   9.1667   9.2362   9.2610   9.3229   9.3302

[...]

          k = 0.2500-0.2165 0.0000 (256316 PWs)   bands (ev):

[...]

          k =-0.5000 0.0000 0.0000 (256496 PWs)   bands (ev):

[...]

          k =-0.5000-0.2165 0.0000 (256328 PWs)   bands (ev):

   -17.5630 -16.3450 -15.9576 -15.6953 -14.9355 -14.7290 -13.9387 -13.5246
   -13.1152 -12.8513 -12.3400 -12.1317 -12.1177 -12.0151 -11.0306 -10.8573
   -10.0924  -9.9302  -9.9000  -9.4688  -8.8200  -8.7776  -8.2022  -7.7089
    -6.6946  -6.3978  -6.0211  -5.9653  -5.7944  -5.7712  -5.7451  -5.7222
    -5.7201  -5.5640  -5.4414  -5.1592  -5.1309  -5.0462  -4.8951  -4.7952
    -4.7681  -4.7469  -4.7468  -4.7107  -4.7006  -4.6797  -4.6198  -4.4103
    -4.3049  -4.2764  -4.1979  -4.0999  -4.0997  -4.0855  -3.9873  -3.8548
    -3.8512  -3.7861  -3.7451  -3.7011  -3.5270  -3.3360  -3.2342  -3.1783
    -3.1722  -3.1401  -3.1322  -3.1274  -3.1230  -3.1184  -3.0290  -2.9776
    -2.9207  -2.8150  -2.6590  -2.6479  -2.6391  -2.6382  -2.6096  -2.5940
    -2.5363  -2.5258  -2.4624  -2.3701  -2.3677  -2.3595  -2.3545  -2.3118
    -2.2067  -2.1895  -2.1477  -2.1458  -2.1189  -2.0619  -2.0567  -2.0537
    -2.0530  -2.0482  -2.0151  -2.0143  -2.0079  -2.0051  -2.0002  -1.9953
    -1.9560  -1.9558  -1.9501  -1.9444  -1.9404  -1.9393  -1.9384  -1.9368
    -1.9301  -1.9278  -1.9259  -1.9241  -1.9181  -1.8766  -1.8761  -1.8733
    -1.8718  -1.8386  -1.8236  -1.8086  -1.8050  -1.8018  -1.7588  -1.7565
    -1.7547  -1.7546  -1.7536  -1.7422  -1.7339  -1.7228  -1.7192  -1.7022
    -1.6983  -1.6974  -1.6921  -1.6909  -1.6861  -1.6836  -1.6801  -1.6800
    -1.6770  -1.6392  -1.6376  -1.6274  -1.6258  -1.6140  -1.6130  -1.6103
    -1.6093  -1.6061  -1.6045  -1.6027  -1.5984  -1.5961  -1.5902  -1.5638
    -1.4584  -1.4552  -1.4487  -1.4436  -1.4205  -1.4163  -1.4149  -1.4142
    -1.3764  -1.3580  -1.3560  -1.3457  -1.3422  -1.3337  -1.3315  -1.3313
    -1.3282  -1.3268  -1.3254  -1.3078  -1.2851  -1.2693  -1.2652  -1.2626
    -1.2624  -1.2582  -1.2524  -1.2516  -1.2420  -1.2392  -1.2283  -1.2255
    -1.2183  -1.1622  -1.1520  -1.1433  -1.1414  -1.1218  -1.1136  -1.1098
    -1.0958  -1.0708  -1.0697  -1.0669  -1.0614  -1.0199  -1.0198  -1.0180
    -1.0175  -1.0036  -1.0030  -0.9950  -0.9949  -0.9824  -0.9775  -0.9651
    -0.9612  -0.9604  -0.9579  -0.9552  -0.9526  -0.9192  -0.9105  -0.8885
    -0.8722  -0.8500  -0.8474  -0.8343  -0.8335  -0.8256  -0.8246  -0.8217
    -0.8205  -0.8146  -0.8110  -0.8088  -0.8077  -0.7463  -0.7460  -0.7342
    -0.7281  -0.7275  -0.7267  -0.7227  -0.7222  -0.7205  -0.7201  -0.7187
    -0.7130  -0.6892  -0.6877  -0.6869  -0.6842  -0.6779  -0.6765  -0.6739
    -0.6737  -0.6629  -0.6625  -0.6594  -0.6585  -0.6077  -0.6056  -0.6031
    -0.5963  -0.5940  -0.5835  -0.5819  -0.5619  -0.5612  -0.5390  -0.5273
    -0.5212  -0.5205  -0.5093  -0.4972  -0.4970  -0.4941  -0.4931  -0.4918
    -0.4899  -0.4850  -0.4841  -0.4811  -0.4778  -0.4762  -0.4731  -0.4713
    -0.4687  -0.4672  -0.4669  -0.4668  -0.4623  -0.4593  -0.4559  -0.4501
    -0.4484  -0.4455  -0.4447  -0.4251  -0.4240  -0.4235  -0.4227  -0.4161
    -0.4144  -0.4083  -0.4072  -0.3990  -0.3895  -0.3704  -0.3603  -0.3590
    -0.3551  -0.3510  -0.3278  -0.3233  -0.3227  -0.3206  -0.3071  -0.2904
    -0.2557  -0.2536  -0.2480  -0.2454  -0.2438  -0.2372  -0.2301  -0.2284
    -0.2230  -0.2188  -0.2182  -0.2094  -0.2049  -0.2027  -0.2008  -0.1999
    -0.1973  -0.1912  -0.1884  -0.1861  -0.1858  -0.1808  -0.1518  -0.1334
    -0.1310  -0.1235  -0.1193  -0.1193  -0.1153  -0.1145  -0.1069  -0.1065
    -0.1051  -0.1050  -0.0834  -0.0808  -0.0804  -0.0747  -0.0688  -0.0668
    -0.0656  -0.0646  -0.0475  -0.0446  -0.0403  -0.0283  -0.0275  -0.0231
    -0.0202  -0.0160  -0.0105  -0.0086  -0.0082  -0.0067   0.0020   0.0024
     0.0035   0.0053   0.0074   0.0113   0.0162   0.0217   0.0234   0.0297
     0.0401   0.0440   0.0570   0.0583   0.0668   0.0788   0.0890   0.0967
     0.1008   0.1028   0.1124   0.1124   0.1131   0.1139   0.1164   0.1194
     0.1249   0.1307   0.1495   0.1497   0.1520   0.1548   0.1552   0.1555
     0.1564   0.1606   0.1715   0.1736   0.2006   0.2036   0.2037   0.2111
     0.2238   0.2355   0.2392   0.2400   0.2400   0.2452   0.2698   0.2705
     0.2771   0.2783   0.2968   0.2983   0.3027   0.3065   0.3502   0.3512
     0.3526   0.3536   0.3676   0.3726   0.3787   0.3820   0.3877   0.3909
     0.4046   0.4067   0.4086   0.4238   0.4303   0.4335   0.4360   0.4383
     0.4451   0.4549   0.4574   0.4615   0.4659   0.4675   0.4685   0.4692
     0.4695   0.4721   0.4728   0.4735   0.4767   0.4791   0.4806   0.4830
     0.4853   0.4897   0.5005   0.5021   0.5023   0.5031   0.5117   0.5153
     0.5182   0.5239   0.5333   0.5347   0.5363   0.5406   0.5471   0.5483
[...]
     3.0346   3.0637   3.1129   3.1147   3.3460   3.3629   3.3634   3.3656
     3.4225   3.5942   3.6301   3.6430   3.6540   3.6561   3.6635   3.8015
     3.8307   3.9223   3.9391   3.9504   3.9685   4.0226   4.1071   4.1131
     4.1229   4.2696   4.3526   4.4497   4.5368   4.5447   4.5698   4.5746
     4.6426   4.6481   4.6560   4.6915   4.7054   4.7610   4.7917   4.8116
     4.8534   4.9486   5.1461   5.1463   5.1585   5.1616   5.2662   5.3091
     5.3897   5.4174   5.8970   6.0440   6.2067   6.2468   6.2742   6.2801
     6.4285   6.4567   6.4610   6.5059   6.5265   6.5656   6.5666   6.5871
     6.6210   6.6478   6.6938   6.7521   6.7796   6.7868   6.8018   6.8023
     6.9177   6.9712   7.0081   7.0526   7.3224   7.3399   7.4108   7.4373
     7.4538   7.4949   7.6450   7.6489   7.6846   7.7087   7.8055   7.8591
     8.2005   8.2142   8.2293   8.2577   8.2679   8.2962   8.3037   8.3051
     8.3220   8.3656   8.3746   8.3763   8.3841   8.4385   8.4519   8.4998
     8.5653   8.5691   8.5757   8.5795   8.5866   8.6339   8.7499   8.7693
     8.8105   8.8203   8.9375   8.9862   9.0239   9.0667   9.2499   9.2658

     the Fermi energy is     2.7453 ev

!    total energy              =  -12508.59249479 Ry
     Harris-Foulkes estimate   =  -12508.59249478 Ry
     estimated scf accuracy    <          7.0E-09 Ry

     The total energy is the sum of the following terms:

     one-electron contribution = -109881.59229664 Ry
     hartree contribution      =   56253.33828675 Ry
     xc contribution           =   -4388.21825988 Ry
     ewald contribution        =   45513.96783097 Ry
     Dispersion Correction     =      -2.78481823 Ry
     smearing contrib. (-TS)   =      -3.30323776 Ry

     convergence has been achieved in  49 iterations

     Writing output data file gc.save

     General routines

     Parallel routines

   This run was terminated on:  21:40:31   8Sep2017

   JOB DONE.