     Program PWSCF v.5.4.0 starts on  8Sep2017 at 16:50:13

     Current dimensions of program PWSCF are:
     Max number of different atomic species (ntypx) = 10
     Max number of k-points (npk) =  40000
     Max angular momentum in pseudopotentials (lmaxx) =  3
     WARNING: atomic wfc #  2 for atom type 4 has zero norm
     WARNING: atomic wfc #  4 for atom type 4 has zero norm
     WARNING: atomic wfc #  5 for atom type 4 has zero norm

     Parameters for Dispersion Correction:
       atom      VdW radius       C_6

        Cu         2.952        374.666
        C_h        2.744         60.710
        C          2.744         60.710
        O          2.536         24.284
        H          1.892          4.857

     bravais-lattice index     =            0
     lattice parameter (alat)  =      13.9425  a.u.
     unit-cell volume          =   21209.0878 (a.u.)^3
     number of atoms/cell      =          150
     number of atomic types    =            5
     number of electrons       =      1302.00
     number of Kohn-Sham states=          781
     kinetic-energy cutoff     =      80.0000  Ry
     charge density cutoff     =     320.0000  Ry
     convergence threshold     =      1.0E-08
     mixing beta               =       0.7000
     number of iterations used =            8  local-TF  mixing
     Exchange-correlation      =  SLA  PW   PBE  PBE ( 1  4  3  4 0 0)

     celldm(1)=  13.942539  celldm(2)=   0.000000  celldm(3)=   0.000000
     celldm(4)=   0.000000  celldm(5)=   0.000000  celldm(6)=   0.000000

     crystal axes: (cart. coord. in units of alat)
               a(1) = (   1.000000   0.000000   0.000000 )
               a(2) = (   0.000000   2.309401   0.000000 )
               a(3) = (   0.000000   0.000000   3.388418 )

     reciprocal axes: (cart. coord. in units 2 pi/alat)
               b(1) = (  1.000000  0.000000  0.000000 )
               b(2) = (  0.000000  0.433013  0.000000 )
               b(3) = (  0.000000  0.000000  0.295123 )

     PseudoPot. # 1 for Cu read from file:
     /home/549/hxw549/Short/pseudopotentials/Cu.pbe-n-van_ak.UPF
     MD5 check sum: 601f7c30f7467666bec936e0661ce3e1
     Pseudo is Ultrasoft + core correction, Zval = 11.0
     Generated by new atomic code, or converted to UPF format
     Using radial grid of  867 points,  6 beta functions with:
                l(1) =   0
                l(2) =   0
                l(3) =   1
                l(4) =   1
                l(5) =   2
                l(6) =   2
     Q(r) pseudized with  8 coefficients,  rinner =    1.400   1.400   1.400
                                                       1.400   1.400

     PseudoPot. # 2 for C  read from file:
     /home/549/hxw549/Short/pseudopotentials/C.star1s-pbe-mt_gipaw.UPF
     MD5 check sum: ef0cb3dee31bd9e4ba2a832a2c716264
     Pseudo is Norm-conserving, Zval =  5.0
     Generated by new atomic code, or converted to UPF format
     Using radial grid of 1073 points,  1 beta functions with:
                l(1) =   0

     PseudoPot. # 3 for C  read from file:
     /home/549/hxw549/Short/pseudopotentials/C.pbe-mt_gipaw.UPF
     MD5 check sum: 5ac2f21f2c440b14befe521540822c15
     Pseudo is Norm-conserving, Zval =  4.0
     Generated by new atomic code, or converted to UPF format
     Using radial grid of 1073 points,  1 beta functions with:
                l(1) =   0

     PseudoPot. # 4 for O  read from file:
     /home/549/hxw549/Short/pseudopotentials/O.pbe-van_gipaw.UPF
     MD5 check sum: 5ce2a047509d4f331db576c963e74b29
     Pseudo is Ultrasoft, Zval =  6.0
     Generated by new atomic code, or converted to UPF format
     Using radial grid of 1095 points,  4 beta functions with:
                l(1) =   0
                l(2) =   0
                l(3) =   1
                l(4) =   1
     Q(r) pseudized with 0 coefficients

     PseudoPot. # 5 for H  read from file:
     /home/549/hxw549/Short/pseudopotentials/H.pbe-van_ak.UPF
     MD5 check sum: 077eb6d537518a38cb46c6de387227b7
     Pseudo is Ultrasoft, Zval =  1.0
     Generated by new atomic code, or converted to UPF format
     Using radial grid of  615 points,  1 beta functions with:
                l(1) =   0
     Q(r) pseudized with  8 coefficients,  rinner =    0.800

     atomic species   valence    mass     pseudopotential
        Cu            11.00    63.54600     Cu( 1.00)
        C_h            5.00    12.01070     C ( 1.00)
        C              4.00    12.01070     C ( 1.00)
        O              6.00    15.99940     O ( 1.00)
        H              1.00     1.00783     H ( 1.00)

     No symmetry found

   Cartesian axes

     site n.     atom                  positions (alat units)
         1           Cu  tau(   1) = (   0.0000796  -0.0010194   0.9996711  )
         2           Cu  tau(   2) = (   0.2500655   0.2302525   0.9998070  )
         3           Cu  tau(   3) = (   0.5000782  -0.0009871   0.9997096  )
         4           Cu  tau(   4) = (   0.7500925   0.2302455   0.9998059  )
         5           Cu  tau(   5) = (   0.0000785   0.4612871   0.9997269  )
         6           Cu  tau(   6) = (   0.2500641   0.6920697   0.9993800  )
         7           Cu  tau(   7) = (   0.5000814   0.4612918   0.9996504  )
         8           Cu  tau(   8) = (   0.7500985   0.6920755   0.9993862  )
         9           Cu  tau(   9) = (   0.0000831   0.9226495   0.9992261  )
        10           Cu  tau(  10) = (   0.2501082   1.1530621   0.9994448  )
        11           Cu  tau(  11) = (   0.5000823   0.9225993   0.9992402  )
        12           Cu  tau(  12) = (   0.7500588   1.1530635   0.9994423  )
        13           Cu  tau(  13) = (   0.0000837   1.3835599   0.9997329  )
        14           Cu  tau(  14) = (   0.2500624   1.6144357   0.9998048  )
        15           Cu  tau(  15) = (   0.5000842   1.3836349   0.9997726  )
        16           Cu  tau(  16) = (   0.7501032   1.6144320   0.9998040  )
        17           Cu  tau(  17) = (   0.0000797   1.8456347   0.9996583  )
        18           Cu  tau(  18) = (   0.2500996   2.0770019   0.9995635  )
        19           Cu  tau(  19) = (   0.5000828   1.8455838   0.9996249  )
        20           Cu  tau(  20) = (   0.7500601   2.0770024   0.9995695  )
        21           Cu  tau(  21) = (   0.0000762   0.2300880   1.2478020  )
        22           Cu  tau(  22) = (   0.2500749  -0.0011159   1.2475204  )
        23           Cu  tau(  23) = (   0.5000774   0.2302010   1.2477392  )
        24           Cu  tau(  24) = (   0.7500776  -0.0011076   1.2475295  )
        25           Cu  tau(  25) = (   0.0000791   0.6922011   1.2480278  )
        26           Cu  tau(  26) = (   0.2500708   0.4613499   1.2479295  )
        27           Cu  tau(  27) = (   0.5000781   0.6921136   1.2479976  )
        28           Cu  tau(  28) = (   0.7500843   0.4613461   1.2479221  )
        29           Cu  tau(  29) = (   0.0000792   1.1528664   1.2482450  )
        30           Cu  tau(  30) = (   0.2500767   0.9225201   1.2481436  )
        31           Cu  tau(  31) = (   0.5000811   1.1528467   1.2482331  )
        32           Cu  tau(  32) = (   0.7500827   0.9225211   1.2481488  )
        33           Cu  tau(  33) = (   0.0000796   1.6146638   1.2478472  )
        34           Cu  tau(  34) = (   0.2500780   1.3835920   1.2481526  )
        35           Cu  tau(  35) = (   0.5000826   1.6147432   1.2478907  )
        36           Cu  tau(  36) = (   0.7500845   1.3835882   1.2481608  )
        37           Cu  tau(  37) = (   0.0000753   2.0771625   1.2473394  )
        38           Cu  tau(  38) = (   0.2500797   1.8459518   1.2474804  )
        39           Cu  tau(  39) = (   0.5000788   2.0770921   1.2473374  )
        40           Cu  tau(  40) = (   0.7500786   1.8459481   1.2474855  )
        41           Cu  tau(  41) = (   0.0000736  -0.0014157   1.4968003  )
        42           Cu  tau(  42) = (   0.2501054   0.2298053   1.4967075  )
        43           Cu  tau(  43) = (   0.5000753  -0.0013072   1.4965172  )
        44           Cu  tau(  44) = (   0.7500440   0.2298195   1.4967296  )
        45           Cu  tau(  45) = (   0.0000715   0.4610974   1.4969703  )
        46           Cu  tau(  46) = (   0.2500888   0.6919294   1.4977424  )
        47           Cu  tau(  47) = (   0.5000768   0.4610199   1.4971307  )
        48           Cu  tau(  48) = (   0.7500576   0.6919217   1.4977398  )
        49           Cu  tau(  49) = (   0.0000730   0.9224488   1.4981802  )
        50           Cu  tau(  50) = (   0.2499887   1.1529644   1.4978341  )
        51           Cu  tau(  51) = (   0.5000709   0.9223233   1.4980553  )
        52           Cu  tau(  52) = (   0.7501545   1.1529594   1.4978490  )
        53           Cu  tau(  53) = (   0.0000770   1.3839580   1.4973583  )
        54           Cu  tau(  54) = (   0.2500530   1.6153014   1.4967700  )
        55           Cu  tau(  55) = (   0.5000690   1.3839959   1.4971714  )
        56           Cu  tau(  56) = (   0.7500984   1.6153015   1.4967707  )
        57           Cu  tau(  57) = (   0.0000733   1.8464668   1.4964703  )
        58           Cu  tau(  58) = (   0.2500842   2.0772456   1.4966335  )
        59           Cu  tau(  59) = (   0.5000792   1.8465124   1.4966717  )
        60           Cu  tau(  60) = (   0.7500644   2.0772510   1.4966332  )
[...]
       134           C   tau( 134) = (   0.6668966   1.4466375   2.3882526  )
       135           C   tau( 135) = (   0.8336471   1.1579389   2.3824963  )
       136           C   tau( 136) = (   0.8335007   1.5428799   2.3852986  )
       137           C   tau( 137) = (   0.0003615   1.8316508   2.3835264  )
       138           C   tau( 138) = (   0.0003333   2.0241360   2.3864695  )
       139           C   tau( 139) = (   0.1672436   1.7353275   2.3855411  )
       140           C   tau( 140) = (   0.1669289   2.1203047   2.3860356  )
       141           C   tau( 141) = (   0.3337845   1.8314735   2.3877347  )
       142           C   tau( 142) = (   0.3337475   2.0239656   2.3853679  )
       143           C   tau( 143) = (   0.5003620   1.7352461   2.3894686  )
       144           C   tau( 144) = (   0.5003277   2.1201495   2.3841265  )
       145           C   tau( 145) = (   0.6669386   1.8314724   2.3878035  )
       146           C   tau( 146) = (   0.6669171   2.0239714   2.3854075  )
       147           C   tau( 147) = (   0.8334847   1.7353460   2.3856745  )
       148           C   tau( 148) = (   0.8337301   2.1203065   2.3860703  )
       149           C_h tau( 149) = (   0.4817526   0.9548742   2.8970998  )
       150           O   tau( 150) = (   0.3804061   1.0742193   2.8969171  )

     number of k points=     6  gaussian smearing, width (Ry)=  0.1000
                       cart. coord. in units 2pi/alat
        k(    1) = (   0.0000000   0.0000000   0.0000000), wk =   0.2500000
        k(    2) = (   0.0000000  -0.2165064   0.0000000), wk =   0.2500000
        k(    3) = (   0.2500000   0.0000000   0.0000000), wk =   0.5000000
        k(    4) = (   0.2500000  -0.2165064   0.0000000), wk =   0.5000000
        k(    5) = (  -0.5000000   0.0000000   0.0000000), wk =   0.2500000
        k(    6) = (  -0.5000000  -0.2165064   0.0000000), wk =   0.2500000

     Largest allocated arrays     est. size (Mb)     dimensions
     Largest temporary arrays     est. size (Mb)     dimensions

     Initial potential from superposition of free atoms
     Check: negative starting charge=   -0.001580

     starting charge 1276.31751, renormalised to 1302.00000

     negative rho (up, down):  1.612E-03 0.000E+00
     Starting wfc are 1296 randomized atomic wfcs

     Self-consistent Calculation

     iteration #  1     ecut=    80.00 Ry     beta=0.70
     Davidson diagonalization with overlap
     ethr =  1.00E-04,  avg # of iterations = 21.5

     negative rho (up, down):  2.989E+01 0.000E+00

     total energy              =   -9481.27327299 Ry
     Harris-Foulkes estimate   =  -17437.45675759 Ry
     estimated scf accuracy    <  185047.04941142 Ry

[...]

     iteration # 31     ecut=    80.00 Ry     beta=0.70
     Davidson diagonalization with overlap
     c_bands:  1 eigenvalues not converged
     ethr =  8.20E-07,  avg # of iterations = 10.3

[...]

     iteration # 38     ecut=    80.00 Ry     beta=0.70
     Davidson diagonalization with overlap
     c_bands:  1 eigenvalues not converged
     ethr =  4.10E-10,  avg # of iterations =  6.7

[...]

     total energy              =  -12750.25075260 Ry
     Harris-Foulkes estimate   =  -12750.25075259 Ry
     estimated scf accuracy    <       0.00000001 Ry

     iteration # 44     ecut=    80.00 Ry     beta=0.70
     Davidson diagonalization with overlap
     ethr =  7.97E-13,  avg # of iterations =  3.0

     negative rho (up, down):  1.762E-03 0.000E+00

     End of self-consistent calculation

          k = 0.0000 0.0000 0.0000 (256287 PWs)   bands (ev):

   -22.7649 -16.3350 -15.9652 -15.9603 -14.8570 -14.8562 -14.3722 -14.3704
   -14.0116 -14.0104 -14.0074 -14.0052 -13.0576 -13.0552 -12.9409 -12.9403
   -12.9393 -12.9383 -11.2475 -11.2461 -11.2453 -11.2437 -11.0377 -10.0426
    -9.3609  -9.3601  -9.3583  -9.3579  -8.4836  -8.4815  -8.4808  -8.4775
    -7.4922  -7.4898  -7.4174  -7.4166  -7.4149  -7.4136  -7.4007  -7.4003
    -7.2589  -6.0111  -5.8616  -5.8592  -5.8578  -5.8551  -5.6976  -5.6967
    -5.6961  -5.6952  -5.4780  -5.4755  -5.0747  -4.6671  -4.6346  -4.5800
    -4.5791  -4.5486  -4.5473  -4.5431  -4.2188  -4.2183  -4.0920  -4.0906
    -3.9801  -3.9800  -3.4077  -3.4064  -3.4057  -3.4050  -3.3995  -3.3988
    -3.2584  -3.2447  -3.2431  -3.2115  -3.2106  -3.1621  -3.0009  -3.0003
    -2.9985  -2.9980  -2.8960  -2.8928  -2.8245  -2.7979  -2.7830  -2.7234
    -2.7171  -2.6547  -2.6532  -2.5896  -2.5886  -2.5880  -2.5866  -2.3545
    -2.3541  -2.3519  -2.3514  -2.2908  -2.2900  -2.1845  -2.1844  -2.1449
    -2.1447  -2.1443  -2.1441  -2.0231  -2.0221  -2.0157  -2.0157  -2.0124
    -2.0124  -2.0114  -2.0112  -1.9430  -1.8832  -1.8826  -1.8296  -1.7683
    -1.7284  -1.7282  -1.7276  -1.7274  -1.6734  -1.6732  -1.6629  -1.6501
    -1.6478  -1.5869  -1.5785  -1.5541  -1.5535  -1.5519  -1.5501  -1.5174
    -1.5171  -1.5161  -1.5158  -1.5069  -1.5050  -1.4248  -1.4242  -1.4049
    -1.3604  -1.3589  -1.3587  -1.3571  -1.3431  -1.2892  -1.2531  -1.2514
    -1.2418  -1.2342  -1.2298  -1.2021  -1.2013  -1.1823  -1.1798  -1.1574
    -1.1540  -1.1075  -1.1009  -1.0819  -1.0817  -1.0805  -1.0795  -1.0371
    -1.0341  -1.0217  -1.0132  -1.0124  -1.0109  -1.0107  -1.0094  -1.0090
    -1.0048  -1.0046  -0.9862  -0.9493  -0.9479  -0.9409  -0.9154  -0.9147
    -0.9120  -0.9069  -0.9064  -0.9054  -0.8478  -0.8465  -0.8455  -0.8454
    -0.8442  -0.8434  -0.8426  -0.8401  -0.8394  -0.8386  -0.8385  -0.8361
    -0.8337  -0.8325  -0.8325  -0.8155  -0.8154  -0.7747  -0.7638  -0.7626
    -0.7603  -0.7594  -0.6790  -0.6790  -0.6744  -0.6741  -0.6466  -0.6455
    -0.6312  -0.6311  -0.6074  -0.6073  -0.5918  -0.5914  -0.5907  -0.5902
    -0.5734  -0.5716  -0.5677  -0.5531  -0.5528  -0.5506  -0.5501  -0.5417
    -0.5409  -0.5289  -0.5283  -0.4811  -0.4810  -0.4280  -0.4278  -0.4158
    -0.4141  -0.4135  -0.4124  -0.3964  -0.3963  -0.3927  -0.3927  -0.3923
    -0.3923  -0.3894  -0.3893  -0.3737  -0.3736  -0.3586  -0.3584  -0.3581
    -0.3579  -0.3416  -0.3409  -0.2882  -0.2857  -0.2853  -0.2787  -0.2785
    -0.2517  -0.2516  -0.2507  -0.2506  -0.2332  -0.2329  -0.2317  -0.2316
    -0.2306  -0.2065  -0.2061  -0.2053  -0.2047  -0.1999  -0.1997  -0.1990
    -0.1989  -0.1973  -0.1940  -0.1773  -0.1766  -0.1760  -0.1751  -0.1746
    -0.1556  -0.1069  -0.1068  -0.1045  -0.1043  -0.0980  -0.0554  -0.0549
    -0.0534  -0.0528  -0.0506  -0.0504  -0.0500  -0.0499  -0.0497  -0.0323
    -0.0313   0.0035   0.0045   0.0088   0.0092   0.0106   0.0351   0.0352
     0.0386   0.0388   0.0397   0.0432   0.0586   0.0593   0.0596   0.0598
     0.0610   0.0617   0.0769   0.0771   0.0774   0.0774   0.0898   0.0903
     0.0903   0.0912   0.1140   0.1150   0.1339   0.1364   0.1482   0.1494
     0.1806   0.1807   0.1824   0.1829   0.2067   0.2102   0.2495   0.2499
     0.2507   0.2515   0.2525   0.2558   0.2862   0.2884   0.2885   0.2893
     0.2899   0.2918   0.2989   0.3000   0.3375   0.3570   0.3571   0.3615
     0.3633   0.3634   0.3653   0.3654   0.3892   0.3989   0.3998   0.4000
     0.4002   0.4341   0.4365   0.4367   0.4376   0.4380   0.4531   0.4543
     0.4550   0.4557   0.4953   0.4955   0.5086   0.5092   0.5098   0.5114
     0.5117   0.5240   0.5411   0.5434   0.5461   0.5482   0.5491   0.5508
     0.5510   0.5511   0.5576   0.5603   0.5608   0.5695   0.5706   0.5708
     0.5718   0.5802   0.5803   0.6083   0.6218   0.6219   0.6309   0.6327
     0.6641   0.6645   0.6649   0.6652   0.6677   0.6678   0.6679   0.6680
     0.6791   0.6802   0.6905   0.6942   0.6946   0.6961   0.6987   0.7037
     0.7038   0.7154   0.7163   0.7243   0.7361   0.7364   0.7366   0.7370
     0.7476   0.7481   0.7594   0.7629   0.7649   0.7649   0.7687   0.7699
     0.7701   0.7727   0.7837   0.8136   0.8179   0.8203   0.8214   0.8216
     0.8280   0.8343   0.8352   0.8399   0.8401   0.8403   0.8412   0.8716
     0.8722   0.8878   0.8886   0.8919   0.8921   0.9066   0.9066   0.9153
     0.9166   0.9181   0.9187   0.9230   0.9380   0.9517   0.9542   0.9548
     0.9565   0.9570   0.9583   0.9765   0.9825   0.9917   1.0012   1.0012
[...]
     3.9167   3.9739   3.9813   3.9823   4.0217   4.0231   4.0232   4.0238
     4.0256   4.0367   4.0456   4.0497   4.2786   4.2795   4.2837   4.2863
     4.4576   4.6242   4.7759   5.0044   5.0068   5.0336   5.0367   5.3245
     5.4434   5.4524   5.4632   5.7513   5.7542   5.7553   5.7619   5.9434
     5.9473   6.3896   6.3921   6.4066   6.4275   6.5088   6.5104   6.5125
     6.5169   6.6760   6.6764   6.6779   6.6798   6.8367   6.8411   6.8434
     6.8464   6.9236   6.9423   7.0748   7.1136   7.1161   7.1181   7.1186
     7.1243   7.3744   7.3786   7.6011   7.6019   7.6497   7.7171   7.7174
     7.7317   7.7339   8.0828   8.1538   8.1852   8.2384   8.2580   8.3426
     8.3483   8.3485   8.3600   8.3639   8.4065   8.4092   8.4604   8.4697
     8.5725   8.6392   8.6462   8.6482   8.6497   8.7086   8.7109   8.7112
     8.7139   8.8544   8.8601   8.8688   8.8700   8.8725   8.8766   9.1087
     9.1506   9.1544   9.1568   9.1581   9.1598   9.1755   9.3665   9.3704
     9.4989   9.5450   9.5524   9.5831   9.5963   9.5965   9.6505   9.7037
     9.8462  10.0585  10.0588  10.1533  10.2107

[...]

          k = 0.2500-0.2165 0.0000 (256316 PWs)   bands (ev):

[...]

          k =-0.5000 0.0000 0.0000 (256496 PWs)   bands (ev):

[...]

          k =-0.5000-0.2165 0.0000 (256328 PWs)   bands (ev):

   -22.7649 -15.7511 -15.7490 -15.7435 -15.7421 -15.0107 -15.0097 -15.0089
   -15.0083 -13.5626 -13.5613 -13.5610 -13.5601 -11.9375 -11.9370 -11.9312
   -11.9307 -11.4954 -11.4938 -11.4926 -11.4916 -11.3158 -11.3145 -11.3116
   -11.3114  -9.6169  -9.6163  -9.6132  -9.6124  -8.6538  -8.6528  -8.6443
    -8.6438  -7.8859  -7.8856  -7.8824  -7.8822  -7.2590  -5.8092  -5.8083
    -5.8078  -5.8074  -5.1867  -5.1862  -5.1837  -5.1835  -5.1722  -5.1719
    -5.1715  -5.1712  -4.9599  -4.9581  -4.9465  -4.9447  -4.6526  -4.6348
    -4.3136  -4.3108  -4.2982  -4.2977  -4.1906  -4.1904  -4.1903  -4.1902
    -4.0850  -4.0842  -4.0839  -4.0831  -3.8354  -3.8333  -3.8286  -3.8277
    -3.5374  -3.5368  -3.5346  -3.5343  -3.5334  -3.5326  -3.5320  -3.5309
    -3.4218  -3.4206  -3.4197  -3.4184  -3.0194  -3.0154  -3.0151  -3.0142
    -2.7990  -2.5718  -2.5717  -2.5715  -2.5714  -2.5066  -2.5062  -2.5055
    -2.5045  -2.2108  -2.2100  -2.2085  -2.2082  -2.0844  -2.0842  -2.0842
    -2.0840  -2.0005  -1.9999  -1.9992  -1.9991  -1.9074  -1.9052  -1.9024
    -1.9000  -1.7953  -1.7952  -1.7939  -1.7937  -1.6906  -1.6896  -1.6892
    -1.6883  -1.4853  -1.4852  -1.4851  -1.4850  -1.4669  -1.4662  -1.4658
    -1.4655  -1.4421  -1.4415  -1.4384  -1.4383  -1.4228  -1.4227  -1.4203
    -1.4202  -1.3761  -1.3758  -1.3757  -1.3755  -1.3736  -1.3735  -1.3729
    -1.3725  -1.3488  -1.3487  -1.3484  -1.3483  -1.2978  -1.2973  -1.2968
    -1.2967  -1.2189  -1.2189  -1.2177  -1.2177  -1.1806  -1.1806  -1.1805
    -1.1803  -1.1621  -1.1621  -1.1619  -1.1617  -1.1097  -1.1096  -1.1095
    -1.1094  -1.1041  -1.1040  -1.1040  -1.1040  -1.0715  -1.0714  -1.0712
    -1.0711  -1.0482  -1.0482  -1.0472  -1.0468  -1.0311  -1.0311  -1.0301
    -1.0299  -1.0261  -1.0260  -1.0254  -1.0253  -0.9238  -0.9227  -0.9089
    -0.9075  -0.8711  -0.8710  -0.8702  -0.8700  -0.8439  -0.8439  -0.8434
    -0.8434  -0.7585  -0.7584  -0.7580  -0.7578  -0.7532  -0.7530  -0.7527
    -0.7526  -0.7499  -0.7498  -0.7495  -0.7493  -0.6898  -0.6897  -0.6895
    -0.6893  -0.6776  -0.6774  -0.6761  -0.6760  -0.6565  -0.6564  -0.6553
    -0.6550  -0.5604  -0.5603  -0.5598  -0.5598  -0.5549  -0.5549  -0.5537
    -0.5537  -0.4866  -0.4864  -0.4861  -0.4860  -0.4361  -0.4360  -0.4358
    -0.4356  -0.4153  -0.4152  -0.4149  -0.4146  -0.3887  -0.3885  -0.3867
    -0.3865  -0.3767  -0.3767  -0.3761  -0.3758  -0.3363  -0.3360  -0.3353
    -0.3350  -0.2632  -0.2631  -0.2619  -0.2618  -0.2457  -0.2457  -0.2450
    -0.2449  -0.2283  -0.2281  -0.2274  -0.2273  -0.1444  -0.1443  -0.1440
    -0.1439  -0.1402  -0.1402  -0.1396  -0.1394  -0.1373  -0.1372  -0.1369
    -0.1368  -0.0974  -0.0973  -0.0972  -0.0972  -0.0853  -0.0853  -0.0847
    -0.0846  -0.0828  -0.0828  -0.0826  -0.0826  -0.0131  -0.0130  -0.0120
    -0.0118   0.0112   0.0113   0.0121   0.0122   0.0635   0.0639   0.0684
     0.0685   0.0828   0.0838   0.0878   0.0881   0.0965   0.0967   0.0975
     0.0976   0.1021   0.1023   0.1043   0.1045   0.1048   0.1053   0.1067
     0.1067   0.1149   0.1149   0.1166   0.1167   0.1217   0.1218   0.1241
     0.1241   0.1375   0.1376   0.1381   0.1382   0.1664   0.1665   0.1669
     0.1670   0.1758   0.1759   0.1765   0.1766   0.2232   0.2234   0.2242
     0.2243   0.2563   0.2563   0.2563   0.2565   0.3268   0.3287   0.3327
     0.3330   0.3405   0.3406   0.3424   0.3425   0.3566   0.3571   0.3572
     0.3575   0.3722   0.3724   0.3743   0.3744   0.3749   0.3751   0.3769
     0.3773   0.3824   0.3831   0.3841   0.3843   0.3947   0.3963   0.3969
     0.3975   0.4186   0.4205   0.4227   0.4227   0.4690   0.4694   0.4698
     0.4703   0.4725   0.4726   0.4742   0.4744   0.4852   0.4852   0.4856
     0.4857   0.5214   0.5215   0.5232   0.5233   0.5235   0.5239   0.5246
     0.5246   0.5688   0.5691   0.5692   0.5695   0.5806   0.5807   0.5815
     0.5815   0.5875   0.5876   0.5887   0.5891   0.5898   0.5900   0.5901
     0.5907   0.6063   0.6065   0.6070   0.6072   0.6233   0.6234   0.6240
     0.6242   0.6918   0.6923   0.6944   0.6949   0.6959   0.6962   0.6967
     0.6976   0.7073   0.7074   0.7081   0.7084   0.7273   0.7277   0.7316
     0.7321   0.7439   0.7440   0.7449   0.7450   0.7467   0.7469   0.7472
     0.7472   0.7979   0.7982   0.7998   0.8000   0.8262   0.8266   0.8274
     0.8276   0.8534   0.8539   0.8555   0.8559   0.8619   0.8622   0.8627
     0.8627   0.8869   0.8873   0.8894   0.8896   0.9390   0.9392   0.9403
     0.9403   0.9732   0.9733   0.9744   0.9746   1.0265   1.0267   1.0277
[...]
     4.2408   4.2440   4.2446   4.3665   4.3668   4.3741   4.3767   4.5835
     4.5844   4.5864   4.5870   4.6168   4.6173   4.6237   4.6245   4.9233
     4.9250   4.9263   4.9277   5.0918   5.0926   5.1187   5.1197   5.1955
     5.1959   5.2007   5.2009   5.3344   5.3382   5.3576   5.3605   5.3852
     5.3886   5.3891   5.3903   5.7590   5.7605   5.7611   5.7614   5.7758
     5.7765   5.7852   5.7859   5.9297   5.9311   5.9403   5.9433   6.7920
     6.7923   6.7980   6.7982   7.1458   7.1465   7.1492   7.1504   7.1803
     7.1804   7.1817   7.1818   7.3195   7.3206   7.3228   7.3269   7.3860
     7.3861   7.3865   7.3866   7.6519   7.6528   7.6568   7.6570   7.9986
     8.0030   8.0081   8.0086   8.0819   8.0838   8.0907   8.0937   8.2640
     8.2645   8.2715   8.2723   8.2809   8.3931   8.4281   8.5524   8.9210
     8.9211   8.9214   8.9218   8.9385   8.9400   8.9407   8.9477   8.9910
     8.9912   8.9914   8.9918   9.1457   9.1497   9.1625   9.1638   9.3113
     9.3476   9.3764   9.5639   9.5648   9.5852   9.5853   9.5916   9.6173
     9.6180   9.6192   9.6327   9.7752   9.8825

     the Fermi energy is     3.3377 ev

!    total energy              =  -12750.25075259 Ry
     Harris-Foulkes estimate   =  -12750.25075260 Ry
     estimated scf accuracy    <          4.8E-09 Ry

     The total energy is the sum of the following terms:

     one-electron contribution = -107937.27655607 Ry
     hartree contribution      =   55335.97369864 Ry
     xc contribution           =   -4458.00306265 Ry
     ewald contribution        =   44315.46833356 Ry
     Dispersion Correction     =      -3.00097539 Ry
     smearing contrib. (-TS)   =      -3.41219068 Ry

     convergence has been achieved in  44 iterations

     Writing output data file gc.save

     General routines

     Parallel routines

   This run was terminated on:   0: 2:46   9Sep2017

   JOB DONE.