     Program PWSCF v.5.4.0 starts on  9Mar2017 at 23:26: 7

     Current dimensions of program PWSCF are:
     Max number of different atomic species (ntypx) = 10
     Max number of k-points (npk) =  40000
     Max angular momentum in pseudopotentials (lmaxx) =  3

     Parameters for Dispersion Correction:
       atom      VdW radius       C_6

        Cu         2.952        374.666
        C_h        2.744         60.710
        C          2.744         60.710

     bravais-lattice index     =            0
     lattice parameter (alat)  =      13.9425  a.u.
     unit-cell volume          =   21209.0878 (a.u.)^3
     number of atoms/cell      =          148
     number of atomic types    =            3
     number of electrons       =      1292.00
     number of Kohn-Sham states=          775
     kinetic-energy cutoff     =      80.0000  Ry
     charge density cutoff     =     320.0000  Ry
     convergence threshold     =      1.0E-08
     mixing beta               =       0.7000
     number of iterations used =            8  local-TF  mixing
     Exchange-correlation      =  SLA  PW   PBX  PBC ( 1  4  3  4 0 0)

     celldm(1)=  13.942539  celldm(2)=   0.000000  celldm(3)=   0.000000
     celldm(4)=   0.000000  celldm(5)=   0.000000  celldm(6)=   0.000000

     crystal axes: (cart. coord. in units of alat)
               a(1) = (   1.000000   0.000000   0.000000 )
               a(2) = (   0.000000   2.309401   0.000000 )
               a(3) = (   0.000000   0.000000   3.388418 )

     reciprocal axes: (cart. coord. in units 2 pi/alat)
               b(1) = (  1.000000  0.000000  0.000000 )
               b(2) = (  0.000000  0.433013  0.000000 )
               b(3) = (  0.000000  0.000000  0.295123 )

     PseudoPot. # 1 for Cu read from file:
     /home/549/hxw549/Short/pseudopotentials/Cu.pbe-n-van_ak.UPF
     MD5 check sum: 601f7c30f7467666bec936e0661ce3e1
     Pseudo is Ultrasoft + core correction, Zval = 11.0
     Generated by new atomic code, or converted to UPF format
     Using radial grid of  867 points,  6 beta functions with:
                l(1) =   0
                l(2) =   0
                l(3) =   1
                l(4) =   1
                l(5) =   2
                l(6) =   2
     Q(r) pseudized with  8 coefficients,  rinner =    1.400   1.400   1.400
                                                       1.400   1.400

     PseudoPot. # 2 for C  read from file:
     /home/549/hxw549/Short/pseudopotentials/C.star1s-pbe-mt_gipaw.UPF
     MD5 check sum: ef0cb3dee31bd9e4ba2a832a2c716264
     Pseudo is Norm-conserving, Zval =  5.0
     Generated by new atomic code, or converted to UPF format
     Using radial grid of 1073 points,  1 beta functions with:
                l(1) =   0

     PseudoPot. # 3 for C  read from file:
     /home/549/hxw549/Short/pseudopotentials/C.pbe-mt_gipaw.UPF
     MD5 check sum: 5ac2f21f2c440b14befe521540822c15
     Pseudo is Norm-conserving, Zval =  4.0
     Generated by new atomic code, or converted to UPF format
     Using radial grid of 1073 points,  1 beta functions with:
                l(1) =   0

     atomic species   valence    mass     pseudopotential
        Cu            11.00    63.54600     Cu( 1.00)
        C_h            5.00    12.01070     C ( 1.00)
        C              4.00    12.01070     C ( 1.00)

      2 Sym. Ops. (no inversion) found

   Cartesian axes

     site n.     atom                  positions (alat units)
         1           Cu  tau(   1) = (   0.0000000   0.0000567   0.9971194  )
         2           Cu  tau(   2) = (   0.2499927   0.2309760   0.9972946  )
         3           Cu  tau(   3) = (   0.5000000   0.0000313   0.9971490  )
         4           Cu  tau(   4) = (   0.7500073   0.2309760   0.9972946  )
         5           Cu  tau(   5) = (   0.0000000   0.4618437   0.9973425  )
         6           Cu  tau(   6) = (   0.2499840   0.6927701   0.9971914  )
         7           Cu  tau(   7) = (   0.5000000   0.4618722   0.9973119  )
         8           Cu  tau(   8) = (   0.7500160   0.6927701   0.9971914  )
         9           Cu  tau(   9) = (   0.0000000   0.9237521   0.9970621  )
        10           Cu  tau(  10) = (   0.2500157   1.1547420   0.9971373  )
        11           Cu  tau(  11) = (   0.5000000   0.9237453   0.9970727  )
        12           Cu  tau(  12) = (   0.7499843   1.1547420   0.9971373  )
        13           Cu  tau(  13) = (   0.0000000   1.3856555   0.9972830  )
        14           Cu  tau(  14) = (   0.2500029   1.6165618   0.9973242  )
        15           Cu  tau(  15) = (   0.5000000   1.3857014   0.9973005  )
        16           Cu  tau(  16) = (   0.7499971   1.6165618   0.9973242  )
        17           Cu  tau(  17) = (   0.0000000   1.8474941   0.9971969  )
        18           Cu  tau(  18) = (   0.2500043   2.0784518   0.9970745  )
        19           Cu  tau(  19) = (   0.5000000   1.8474499   0.9971773  )
        20           Cu  tau(  20) = (   0.7499957   2.0784518   0.9970745  )
        21           Cu  tau(  21) = (   0.0000000   0.2308065   1.2457643  )
        22           Cu  tau(  22) = (   0.2499892  -0.0001010   1.2455764  )
        23           Cu  tau(  23) = (   0.5000000   0.2308938   1.2456746  )
        24           Cu  tau(  24) = (   0.7500108  -0.0001010   1.2455764  )
        25           Cu  tau(  25) = (   0.0000000   0.6929786   1.2456406  )
        26           Cu  tau(  26) = (   0.2499874   0.4619293   1.2457459  )
        27           Cu  tau(  27) = (   0.5000000   0.6929012   1.2456074  )
        28           Cu  tau(  28) = (   0.7500126   0.4619293   1.2457459  )
        29           Cu  tau(  29) = (   0.0000000   1.1546142   1.2455676  )
        30           Cu  tau(  30) = (   0.2499981   0.9237849   1.2455149  )
        31           Cu  tau(  31) = (   0.5000000   1.1545763   1.2455800  )
        32           Cu  tau(  32) = (   0.7500019   0.9237849   1.2455149  )
        33           Cu  tau(  33) = (   0.0000000   1.6166029   1.2456910  )
        34           Cu  tau(  34) = (   0.2500161   1.3855492   1.2457134  )
        35           Cu  tau(  35) = (   0.5000000   1.6166555   1.2458019  )
        36           Cu  tau(  36) = (   0.7499839   1.3855492   1.2457134  )
        37           Cu  tau(  37) = (   0.0000000   2.0784993   1.2455162  )
        38           Cu  tau(  38) = (   0.2500161   1.8476387   1.2456210  )
        39           Cu  tau(  39) = (   0.5000000   2.0784755   1.2455152  )
        40           Cu  tau(  40) = (   0.7499839   1.8476387   1.2456210  )
        41           Cu  tau(  41) = (   0.0000000  -0.0003182   1.4954305  )
        42           Cu  tau(  42) = (   0.2500224   0.2307186   1.4951678  )
        43           Cu  tau(  43) = (   0.5000000  -0.0002059   1.4952775  )
        44           Cu  tau(  44) = (   0.7499776   0.2307186   1.4951678  )
        45           Cu  tau(  45) = (   0.0000000   0.4620254   1.4950571  )
        46           Cu  tau(  46) = (   0.2500339   0.6931225   1.4952807  )
        47           Cu  tau(  47) = (   0.5000000   0.4619896   1.4952144  )
        48           Cu  tau(  48) = (   0.7499661   0.6931225   1.4952807  )
        49           Cu  tau(  49) = (   0.0000000   0.9238798   1.4954544  )
        50           Cu  tau(  50) = (   0.2499708   1.1544329   1.4953374  )
        51           Cu  tau(  51) = (   0.5000000   0.9237633   1.4954072  )
        52           Cu  tau(  52) = (   0.7500292   1.1544329   1.4953374  )
        53           Cu  tau(  53) = (   0.0000000   1.3854453   1.4952066  )
        54           Cu  tau(  54) = (   0.2499861   1.6167017   1.4951298  )
        55           Cu  tau(  55) = (   0.5000000   1.3853760   1.4951346  )
        56           Cu  tau(  56) = (   0.7500139   1.6167017   1.4951298  )
        57           Cu  tau(  57) = (   0.0000000   1.8477718   1.4952308  )
        58           Cu  tau(  58) = (   0.2499930   2.0785254   1.4954090  )
        59           Cu  tau(  59) = (   0.5000000   1.8478762   1.4953503  )
        60           Cu  tau(  60) = (   0.7500070   2.0785254   1.4954090  )
[...]
       105           C   tau( 105) = (   0.3331238   0.0962174   2.4035541  )
       106           C   tau( 106) = (   0.3331280   0.2886629   2.4336026  )
       107           C   tau( 107) = (   0.5000000  -0.0000818   2.3845519  )
       108           C   tau( 108) = (   0.5000000   0.3849277   2.4429275  )
       109           C   tau( 109) = (   0.6668762   0.0962174   2.4035541  )
       110           C   tau( 110) = (   0.6668720   0.2886629   2.4336026  )
       111           C   tau( 111) = (   0.8333677   0.0000435   2.3878454  )
       112           C   tau( 112) = (   0.8335100   0.3848966   2.4473596  )
       113           C   tau( 113) = (   0.0000000   0.6735163   2.4547192  )
       114           C   tau( 114) = (   0.0000000   0.8659398   2.4350257  )
       115           C   tau( 115) = (   0.1664759   0.5773226   2.4560475  )
       116           C   tau( 116) = (   0.1667428   0.9622141   2.4209164  )
       117           C   tau( 117) = (   0.3332094   0.6735984   2.4512630  )
       118           C   tau( 118) = (   0.3332031   0.8660537   2.4345242  )
       119           C   tau( 119) = (   0.5000000   0.5773685   2.4526184  )
       120           C_h tau( 120) = (   0.5000000   0.9623380   2.4199540  )
       121           C   tau( 121) = (   0.6667906   0.6735984   2.4512630  )
       122           C   tau( 122) = (   0.6667969   0.8660537   2.4345242  )
       123           C   tau( 123) = (   0.8335241   0.5773226   2.4560475  )
       124           C   tau( 124) = (   0.8332572   0.9622141   2.4209164  )
       125           C   tau( 125) = (   0.0000000   1.2508867   2.3677317  )
       126           C   tau( 126) = (   0.0000000   1.4433300   2.3361788  )
       127           C   tau( 127) = (   0.1667360   1.1546708   2.3859750  )
       128           C   tau( 128) = (   0.1668939   1.5396104   2.3270301  )
       129           C   tau( 129) = (   0.3335095   1.2509657   2.3703476  )
       130           C   tau( 130) = (   0.3334866   1.4433958   2.3407328  )
       131           C   tau( 131) = (   0.5000000   1.1547731   2.3885366  )
       132           C   tau( 132) = (   0.5000000   1.5396099   2.3314486  )
       133           C   tau( 133) = (   0.6664905   1.2509657   2.3703476  )
       134           C   tau( 134) = (   0.6665134   1.4433958   2.3407328  )
       135           C   tau( 135) = (   0.8332640   1.1546708   2.3859750  )
       136           C   tau( 136) = (   0.8331061   1.5396104   2.3270301  )
       137           C   tau( 137) = (   0.0000000   1.8283510   2.3187488  )
       138           C   tau( 138) = (   0.0000000   2.0207949   2.3384287  )
       139           C   tau( 139) = (   0.1668959   1.7320513   2.3180982  )
       140           C   tau( 140) = (   0.1666186   2.1169980   2.3526601  )
       141           C   tau( 141) = (   0.3334155   1.8282368   2.3227607  )
       142           C   tau( 142) = (   0.3334352   2.0206763   2.3390251  )
       143           C   tau( 143) = (   0.5000000   1.7319961   2.3217712  )
       144           C   tau( 144) = (   0.5000000   2.1168754   2.3531209  )
       145           C   tau( 145) = (   0.6665845   1.8282368   2.3227607  )
       146           C   tau( 146) = (   0.6665648   2.0206763   2.3390251  )
       147           C   tau( 147) = (   0.8331041   1.7320513   2.3180982  )
       148           C   tau( 148) = (   0.8333814   2.1169980   2.3526601  )

     number of k points=     6  gaussian smearing, width (Ry)=  0.1000
                       cart. coord. in units 2pi/alat
        k(    1) = (   0.0000000   0.0000000   0.0000000), wk =   0.2500000
        k(    2) = (   0.0000000  -0.2165064   0.0000000), wk =   0.2500000
        k(    3) = (   0.2500000   0.0000000   0.0000000), wk =   0.5000000
        k(    4) = (   0.2500000  -0.2165064   0.0000000), wk =   0.5000000
        k(    5) = (  -0.5000000   0.0000000   0.0000000), wk =   0.2500000
        k(    6) = (  -0.5000000  -0.2165064   0.0000000), wk =   0.2500000

     Largest allocated arrays     est. size (Mb)     dimensions
     Largest temporary arrays     est. size (Mb)     dimensions

     Initial potential from superposition of free atoms
     Check: negative starting charge=   -0.001835

     starting charge 1266.81751, renormalised to 1292.00000

     negative rho (up, down):  1.871E-03 0.000E+00
     Starting wfc are 1284 randomized atomic wfcs

     Self-consistent Calculation

     iteration #  1     ecut=    80.00 Ry     beta=0.70
     Davidson diagonalization with overlap
     c_bands:  2 eigenvalues not converged
     c_bands:  4 eigenvalues not converged
     ethr =  1.00E-04,  avg # of iterations = 41.0

     negative rho (up, down):  2.702E+01 0.000E+00

     total energy              =   -9519.10216523 Ry
     Harris-Foulkes estimate   =  -17297.87079477 Ry
     estimated scf accuracy    <  179261.86745647 Ry

     iteration #  2     ecut=    80.00 Ry     beta=0.70
     Davidson diagonalization with overlap
     ethr =  1.00E-02,  avg # of iterations = 12.7

[...]

     iteration # 39     ecut=    80.00 Ry     beta=0.70
     Davidson diagonalization with overlap
     c_bands:  1 eigenvalues not converged
     c_bands:  2 eigenvalues not converged
     ethr =  3.62E-08,  avg # of iterations = 13.7

[...]

     total energy              =  -12707.08805533 Ry
     Harris-Foulkes estimate   =  -12707.08805527 Ry
     estimated scf accuracy    <       0.00000005 Ry

     iteration # 47     ecut=    80.00 Ry     beta=0.70
     Davidson diagonalization with overlap
     ethr =  3.50E-12,  avg # of iterations =  3.5

     negative rho (up, down):  2.105E-03 0.000E+00

     End of self-consistent calculation

          k = 0.0000 0.0000 0.0000 (256287 PWs)   bands (ev):

   -17.0841 -16.4215 -15.9977 -15.3867 -15.0253 -14.6977 -14.6170 -14.4180
   -14.3071 -14.0449 -14.0286 -13.4870 -13.3334 -13.1538 -13.1253 -13.0704
   -13.0704 -11.7066 -11.5436 -11.5275 -11.3869 -11.2939 -10.3199  -9.8138
    -9.7372  -9.6178  -9.5528  -8.9544  -8.8409  -8.6044  -8.5972  -8.0717
    -7.8979  -7.8472  -7.6665  -7.5870  -7.5574  -7.5090  -7.4763  -6.3885
    -6.3745  -6.1610  -6.0426  -6.0249  -5.9695  -5.9677  -5.9201  -5.8464
    -5.5397  -5.4785  -5.3172  -4.9219  -4.9189  -4.8512  -4.7595  -4.7204
    -4.5609  -4.5127  -4.2400  -4.1310  -4.0201  -3.9792  -3.9671  -3.8959
    -3.6501  -3.6358  -3.5439  -3.5326  -3.5016  -3.4304  -3.4162  -3.4115
    -3.3224  -3.2496  -3.1587  -3.0793  -3.0759  -3.0063  -2.9965  -2.9719
    -2.9194  -2.8991  -2.8972  -2.8947  -2.8722  -2.8609  -2.7644  -2.7263
    -2.7031  -2.6992  -2.6106  -2.4319  -2.4255  -2.4208  -2.3344  -2.2748
    -2.2161  -2.1815  -2.1774  -2.1636  -2.1422  -2.1397  -2.1381  -2.1368
    -2.1359  -2.0634  -2.0599  -2.0114  -2.0093  -2.0066  -2.0018  -1.9982
    -1.9430  -1.8279  -1.7638  -1.7607  -1.7340  -1.7197  -1.7195  -1.7073
    -1.6998  -1.6605  -1.6491  -1.6461  -1.6227  -1.5965  -1.5828  -1.5778
    -1.5737  -1.5499  -1.5480  -1.5427  -1.5282  -1.5219  -1.5195  -1.5045
    -1.5016  -1.4940  -1.4792  -1.4292  -1.4209  -1.4128  -1.4030  -1.3877
    -1.3555  -1.3399  -1.3077  -1.2858  -1.2803  -1.2491  -1.2464  -1.2317
    -1.1992  -1.1979  -1.1789  -1.1760  -1.1644  -1.1505  -1.1451  -1.1399
    -1.1152  -1.1126  -1.0581  -1.0378  -1.0356  -1.0155  -1.0143  -1.0117
    -1.0114  -1.0089  -1.0088  -1.0044  -1.0037  -0.9898  -0.9841  -0.9793
    -0.9454  -0.9317  -0.9285  -0.9237  -0.9218  -0.9165  -0.9129  -0.9093
    -0.9060  -0.9010  -0.8529  -0.8497  -0.8474  -0.8460  -0.8451  -0.8406
    -0.8400  -0.8369  -0.8353  -0.8345  -0.8344  -0.8344  -0.8330  -0.8279
    -0.8274  -0.8189  -0.8129  -0.8083  -0.8047  -0.7743  -0.7440  -0.6793
    -0.6791  -0.6703  -0.6703  -0.6541  -0.6501  -0.6309  -0.6303  -0.6090
    -0.6084  -0.5936  -0.5917  -0.5884  -0.5879  -0.5863  -0.5525  -0.5513
    -0.5488  -0.5483  -0.5447  -0.5445  -0.5344  -0.5336  -0.4824  -0.4823
    -0.4275  -0.4274  -0.4214  -0.4204  -0.4169  -0.4165  -0.3963  -0.3958
    -0.3920  -0.3920  -0.3912  -0.3905  -0.3901  -0.3899  -0.3840  -0.3720
    -0.3717  -0.3671  -0.3647  -0.3646  -0.3408  -0.3402  -0.3182  -0.2875
    -0.2779  -0.2777  -0.2739  -0.2534  -0.2517  -0.2513  -0.2489  -0.2487
    -0.2456  -0.2418  -0.2288  -0.2287  -0.2148  -0.2080  -0.2075  -0.2068
    -0.2050  -0.2048  -0.2016  -0.2014  -0.2006  -0.1983  -0.1970  -0.1787
    -0.1787  -0.1772  -0.1765  -0.1685  -0.1538  -0.1161  -0.1120  -0.1106
    -0.1079  -0.1034  -0.1015  -0.1004  -0.0776  -0.0627  -0.0547  -0.0506
    -0.0499  -0.0485  -0.0476  -0.0456  -0.0448  -0.0396  -0.0010   0.0006
     0.0019   0.0045   0.0134   0.0246   0.0270   0.0305   0.0360   0.0377
     0.0385   0.0415   0.0468   0.0499   0.0509   0.0588   0.0612   0.0615
     0.0726   0.0733   0.0753   0.0759   0.0840   0.0884   0.0889   0.1044
     0.1160   0.1161   0.1432   0.1459   0.1472   0.1740   0.1786   0.1974
     0.2038   0.2094   0.2428   0.2430   0.2453   0.2472   0.2522   0.2530
     0.2708   0.2737   0.2746   0.2752   0.2771   0.2795   0.2805   0.3063
     0.3312   0.3398   0.3532   0.3541   0.3557   0.3579   0.3583   0.3636
     0.3848   0.3852   0.3853   0.3874   0.4001   0.4029   0.4193   0.4284
     0.4306   0.4442   0.4463   0.4492   0.4514   0.4835   0.4879   0.4934
     0.4975   0.5021   0.5058   0.5112   0.5121   0.5150   0.5189   0.5237
     0.5317   0.5318   0.5389   0.5407   0.5445   0.5452   0.5566   0.5584
     0.5614   0.5623   0.5701   0.5707   0.5782   0.5843   0.5845   0.6073
     0.6137   0.6176   0.6180   0.6187   0.6348   0.6368   0.6393   0.6463
     0.6489   0.6562   0.6565   0.6673   0.6677   0.6685   0.6712   0.6837
     0.6859   0.6872   0.6877   0.6885   0.7005   0.7006   0.7095   0.7124
     0.7146   0.7205   0.7322   0.7339   0.7373   0.7406   0.7414   0.7549
     0.7588   0.7601   0.7604   0.7634   0.7634   0.7650   0.7692   0.7726
     0.7732   0.7815   0.8160   0.8167   0.8188   0.8215   0.8254   0.8406
     0.8417   0.8424   0.8651   0.8653   0.8782   0.8799   0.8884   0.8893
     0.8958   0.8980   0.8983   0.9043   0.9127   0.9142   0.9144   0.9239
     0.9418   0.9473   0.9500   0.9536   0.9542   0.9544   0.9645   0.9694
     0.9699   0.9844   0.9901   0.9959   0.9993   1.0075   1.0077   1.0107
[...]
     3.8716   3.8914   3.9011   3.9300   3.9821   4.0139   4.0197   4.0209
     4.0289   4.0326   4.0328   4.0401   4.0499   4.2487   4.2856   4.2891
     4.3292   4.3745   4.5455   4.6369   4.6756   4.8239   4.8263   4.8554
     5.2918   5.3877   5.4045   5.5095   5.7160   5.7487   5.8446   5.9022
     5.9377   5.9434   6.1313   6.3268   6.3273   6.3649   6.4319   6.4651
     6.4802   6.4974   6.5014   6.5584   6.5974   6.6056   6.6366   6.6785
     6.7796   6.7832   6.7959   6.7960   6.9907   7.0121   7.1560   7.1712
     7.2099   7.2184   7.3868   7.3908   7.5182   7.5924   7.5998   7.7167
     7.7188   7.7344   7.7437   7.9438   8.0286   8.0435   8.1466   8.2158
     8.2258   8.2622   8.2710   8.2925   8.3038   8.3115   8.3658   8.3781
     8.3909   8.4575   8.4800   8.5272   8.5322   8.5975   8.6889   8.6972
     8.7090   8.7140   8.8198   8.8257   8.8281   8.8476   8.9299   8.9803
     9.0847   9.1524   9.1604   9.1770   9.1807   9.1951   9.1988   9.2169
     9.2242   9.3634   9.3752   9.4368   9.4464   9.5988   9.6008   9.6802
     9.6958   9.8416   9.8446   9.8930  10.0052  10.0581  10.0602

[...]

          k = 0.2500-0.2165 0.0000 (256316 PWs)   bands (ev):

[...]

          k =-0.5000 0.0000 0.0000 (256496 PWs)   bands (ev):

[...]

          k =-0.5000-0.2165 0.0000 (256328 PWs)   bands (ev):

   -16.9626 -16.0084 -15.9594 -15.7592 -15.3503 -15.2037 -15.1166 -15.0956
   -14.0602 -13.8420 -13.7131 -13.6789 -12.5431 -12.3110 -12.1600 -12.1035
   -11.9428 -11.7872 -11.7295 -11.6253 -11.5191 -11.5138 -11.3851 -11.3627
   -10.0411  -9.9564  -9.8034  -9.7886  -9.2375  -8.9405  -8.8666  -8.7515
    -8.3005  -8.2873  -8.0988  -8.0542  -6.5883  -6.2077  -6.1707  -6.0104
    -5.8588  -5.6409  -5.4299  -5.3227  -5.3026  -5.2234  -5.2204  -5.2031
    -5.1638  -5.1589  -5.0904  -4.9870  -4.8106  -4.7140  -4.5823  -4.4835
    -4.3442  -4.2692  -4.2580  -4.2175  -4.2014  -4.1799  -4.1748  -4.1620
    -4.1251  -4.0727  -3.9261  -3.9046  -3.8961  -3.8526  -3.7853  -3.7674
    -3.7456  -3.7212  -3.6406  -3.6395  -3.6378  -3.4883  -3.4723  -3.4353
    -3.1526  -3.0819  -3.0706  -3.0556  -2.6785  -2.6206  -2.5725  -2.5674
    -2.5665  -2.5656  -2.5333  -2.5240  -2.4956  -2.4791  -2.4774  -2.4369
    -2.2564  -2.2281  -2.1842  -2.1050  -2.1004  -2.0935  -2.0712  -2.0479
    -2.0401  -2.0078  -2.0060  -2.0034  -1.9266  -1.8084  -1.8015  -1.7960
    -1.7948  -1.7859  -1.7848  -1.7702  -1.5541  -1.5233  -1.5185  -1.5114
    -1.4805  -1.4800  -1.4797  -1.4795  -1.4490  -1.4452  -1.4430  -1.4392
    -1.4203  -1.4201  -1.4186  -1.4185  -1.3835  -1.3761  -1.3745  -1.3742
    -1.3691  -1.3689  -1.3667  -1.3662  -1.3662  -1.3442  -1.3442  -1.3441
    -1.3440  -1.3169  -1.3151  -1.2908  -1.2904  -1.2184  -1.2177  -1.2176
    -1.2159  -1.1847  -1.1793  -1.1784  -1.1763  -1.1761  -1.1739  -1.1686
    -1.1649  -1.1578  -1.1146  -1.1109  -1.1097  -1.1096  -1.1040  -1.1029
    -1.1021  -1.1011  -1.0965  -1.0832  -1.0814  -1.0801  -1.0783  -1.0655
    -1.0468  -1.0457  -1.0425  -1.0421  -1.0308  -1.0306  -1.0288  -1.0285
    -1.0246  -1.0245  -1.0208  -1.0204  -0.9005  -0.8936  -0.8654  -0.8654
    -0.8504  -0.8405  -0.8398  -0.8397  -0.8348  -0.8049  -0.7848  -0.7651
    -0.7649  -0.7617  -0.7610  -0.7586  -0.7562  -0.7550  -0.7532  -0.7531
    -0.7238  -0.7148  -0.6965  -0.6903  -0.6889  -0.6872  -0.6854  -0.6849
    -0.6768  -0.6754  -0.6595  -0.6580  -0.6479  -0.6458  -0.5968  -0.5824
    -0.5536  -0.5487  -0.5387  -0.5343  -0.4921  -0.4918  -0.4901  -0.4900
    -0.4724  -0.4614  -0.4560  -0.4396  -0.4346  -0.4334  -0.4303  -0.4288
    -0.4205  -0.4116  -0.4110  -0.3999  -0.3943  -0.3804  -0.3802  -0.3791
    -0.3785  -0.3468  -0.3446  -0.3372  -0.3309  -0.2663  -0.2659  -0.2591
    -0.2582  -0.2489  -0.2482  -0.2451  -0.2450  -0.2444  -0.2443  -0.2284
    -0.2283  -0.2133  -0.2101  -0.1542  -0.1519  -0.1510  -0.1501  -0.1481
    -0.1427  -0.1426  -0.1389  -0.1388  -0.1370  -0.1311  -0.1278  -0.0981
    -0.0981  -0.0980  -0.0978  -0.0886  -0.0881  -0.0880  -0.0877  -0.0853
    -0.0849  -0.0829  -0.0818  -0.0562  -0.0239  -0.0237  -0.0194  -0.0188
    -0.0086   0.0005   0.0163   0.0173   0.0203   0.0320   0.0655   0.0661
     0.0721   0.0816   0.0886   0.0892   0.0908   0.0923   0.0932   0.0945
     0.0951   0.0979   0.0998   0.1035   0.1049   0.1108   0.1144   0.1184
     0.1213   0.1216   0.1216   0.1221   0.1340   0.1358   0.1363   0.1369
     0.1529   0.1596   0.1618   0.1625   0.1626   0.1668   0.1696   0.1723
     0.1756   0.1775   0.1783   0.2221   0.2225   0.2236   0.2243   0.2503
     0.2509   0.2550   0.2565   0.2718   0.2844   0.2853   0.3201   0.3262
     0.3270   0.3384   0.3422   0.3482   0.3551   0.3561   0.3561   0.3569
     0.3690   0.3712   0.3722   0.3730   0.3746   0.3748   0.3761   0.3763
     0.3778   0.3825   0.3834   0.3846   0.3888   0.3964   0.4374   0.4374
     0.4514   0.4555   0.4577   0.4591   0.4598   0.4620   0.4817   0.4819
     0.4823   0.4826   0.5086   0.5099   0.5147   0.5162   0.5170   0.5186
     0.5240   0.5240   0.5415   0.5490   0.5523   0.5534   0.5577   0.5605
     0.5649   0.5664   0.5709   0.5724   0.5746   0.5767   0.5814   0.5820
     0.5839   0.5844   0.5853   0.5881   0.5909   0.5921   0.5967   0.6049
     0.6119   0.6146   0.6306   0.6322   0.6600   0.6618   0.6682   0.6748
     0.6883   0.6887   0.6915   0.6925   0.6948   0.6957   0.6980   0.7015
     0.7017   0.7205   0.7231   0.7257   0.7333   0.7371   0.7383   0.7412
     0.7441   0.7451   0.7503   0.7532   0.7819   0.7824   0.7976   0.7997
     0.8106   0.8130   0.8189   0.8223   0.8269   0.8275   0.8465   0.8481
     0.8502   0.8513   0.8642   0.8644   0.8777   0.8781   0.8886   0.8928
     0.9342   0.9342   0.9355   0.9359   0.9558   0.9567   0.9662   0.9684
     0.9860   0.9890   1.0055   1.0161   1.0165   1.0231   1.0248   1.0279
[...]
     4.0248   4.1824   4.1875   4.2462   4.2497   4.2673   4.2741   4.3249
     4.4520   4.4908   4.5051   4.5374   4.5527   4.5908   4.5982   4.6395
     4.6625   4.6911   4.7985   4.8482   4.8836   4.9297   4.9347   5.1385
     5.1569   5.1889   5.2089   5.2148   5.2241   5.2422   5.2924   5.2937
     5.3279   5.4000   5.4007   5.4471   5.4629   5.5054   5.6794   5.6832
     5.7696   5.7740   5.7762   5.7796   5.8129   5.8332   6.1209   6.1526
     6.7745   6.7790   6.8012   6.8033   7.0955   7.1010   7.1444   7.1461
     7.1791   7.1824   7.1845   7.2188   7.2848   7.2874   7.2968   7.3129
     7.3852   7.3854   7.3898   7.3915   7.4496   7.6525   7.6842   7.6995
     7.7083   7.7626   7.7719   7.8058   8.0605   8.0773   8.0850   8.0916
     8.2450   8.2762   8.2880   8.2964   8.3244   8.3250   8.3589   8.3716
     8.9060   8.9094   8.9111   8.9112   8.9245   8.9275   8.9429   8.9438
     8.9879   8.9895   8.9910   8.9923   9.1155   9.1207   9.1339   9.1359
     9.3014   9.3189   9.3372   9.3449   9.5080   9.5096   9.6042   9.6140
     9.6186   9.6326   9.6454   9.6669   9.8957   9.9229   9.9792

     the Fermi energy is     3.3356 ev

!    total energy              =  -12707.08805533 Ry
     Harris-Foulkes estimate   =  -12707.08805533 Ry
     estimated scf accuracy    <          5.3E-09 Ry

     The total energy is the sum of the following terms:

     one-electron contribution = -109315.88989530 Ry
     hartree contribution      =   56019.43772984 Ry
     xc contribution           =   -4447.56658471 Ry
     ewald contribution        =   45043.26098477 Ry
     Dispersion Correction     =      -2.96908383 Ry
     smearing contrib. (-TS)   =      -3.36120609 Ry

     convergence has been achieved in  47 iterations

     Writing output data file gc.save

     General routines

     Parallel routines

   This run was terminated on:   4:41:35  10Mar2017

   JOB DONE.
WALL ( 1379977 calls)

   This run was terminated on:   0: 1:14  10Mar2017

   JOB DONE.