     Program PWSCF v.5.4.0 starts on 30Jan2018 at 10:31:32

     Current dimensions of program PWSCF are:
     Max number of different atomic species (ntypx) = 10
     Max number of k-points (npk) =  40000
     Max angular momentum in pseudopotentials (lmaxx) =  3

     Parameters for Dispersion Correction:
       atom      VdW radius       C_6

        Cu         2.952        374.666
        C_h        2.744         60.710
        C          2.744         60.710

     bravais-lattice index     =            0
     lattice parameter (alat)  =      13.9425  a.u.
     unit-cell volume          =   21209.0878 (a.u.)^3
     number of atoms/cell      =          148
     number of atomic types    =            3
     number of electrons       =      1292.00
     number of Kohn-Sham states=          775
     kinetic-energy cutoff     =      80.0000  Ry
     charge density cutoff     =     320.0000  Ry
     convergence threshold     =      1.0E-08
     mixing beta               =       0.7000
     number of iterations used =            8  local-TF  mixing
     Exchange-correlation      =  SLA  PW   PBX  PBC ( 1  4  3  4 0 0)

     celldm(1)=  13.942539  celldm(2)=   0.000000  celldm(3)=   0.000000
     celldm(4)=   0.000000  celldm(5)=   0.000000  celldm(6)=   0.000000

     crystal axes: (cart. coord. in units of alat)
               a(1) = (   1.000000   0.000000   0.000000 )
               a(2) = (   0.000000   2.309401   0.000000 )
               a(3) = (   0.000000   0.000000   3.388418 )

     reciprocal axes: (cart. coord. in units 2 pi/alat)
               b(1) = (  1.000000  0.000000  0.000000 )
               b(2) = (  0.000000  0.433013  0.000000 )
               b(3) = (  0.000000  0.000000  0.295123 )

     PseudoPot. # 1 for Cu read from file:
     /home/549/hxw549/Short/pseudopotentials/Cu.pbe-n-van_ak.UPF
     MD5 check sum: 601f7c30f7467666bec936e0661ce3e1
     Pseudo is Ultrasoft + core correction, Zval = 11.0
     Generated by new atomic code, or converted to UPF format
     Using radial grid of  867 points,  6 beta functions with:
                l(1) =   0
                l(2) =   0
                l(3) =   1
                l(4) =   1
                l(5) =   2
                l(6) =   2
     Q(r) pseudized with  8 coefficients,  rinner =    1.400   1.400   1.400
                                                       1.400   1.400

     PseudoPot. # 2 for C  read from file:
     /home/549/hxw549/Short/pseudopotentials/C.star1s-pbe-mt_gipaw.UPF
     MD5 check sum: ef0cb3dee31bd9e4ba2a832a2c716264
     Pseudo is Norm-conserving, Zval =  5.0
     Generated by new atomic code, or converted to UPF format
     Using radial grid of 1073 points,  1 beta functions with:
                l(1) =   0

     PseudoPot. # 3 for C  read from file:
     /home/549/hxw549/Short/pseudopotentials/C.pbe-mt_gipaw.UPF
     MD5 check sum: 5ac2f21f2c440b14befe521540822c15
     Pseudo is Norm-conserving, Zval =  4.0
     Generated by new atomic code, or converted to UPF format
     Using radial grid of 1073 points,  1 beta functions with:
                l(1) =   0

     atomic species   valence    mass     pseudopotential
        Cu            11.00    63.54600     Cu( 1.00)
        C_h            5.00    12.01070     C ( 1.00)
        C              4.00    12.01070     C ( 1.00)

      2 Sym. Ops. (no inversion) found

   Cartesian axes

     site n.     atom                  positions (alat units)
         1           Cu  tau(   1) = (   0.0000000   0.0000567   0.9971194  )
         2           Cu  tau(   2) = (   0.2499927   0.2309760   0.9972946  )
         3           Cu  tau(   3) = (   0.5000000   0.0000313   0.9971490  )
         4           Cu  tau(   4) = (   0.7500073   0.2309760   0.9972946  )
         5           Cu  tau(   5) = (   0.0000000   0.4618437   0.9973425  )
         6           Cu  tau(   6) = (   0.2499840   0.6927701   0.9971914  )
         7           Cu  tau(   7) = (   0.5000000   0.4618722   0.9973119  )
         8           Cu  tau(   8) = (   0.7500160   0.6927701   0.9971914  )
         9           Cu  tau(   9) = (   0.0000000   0.9237521   0.9970621  )
        10           Cu  tau(  10) = (   0.2500157   1.1547420   0.9971373  )
        11           Cu  tau(  11) = (   0.5000000   0.9237453   0.9970727  )
        12           Cu  tau(  12) = (   0.7499843   1.1547420   0.9971373  )
        13           Cu  tau(  13) = (   0.0000000   1.3856555   0.9972830  )
        14           Cu  tau(  14) = (   0.2500029   1.6165618   0.9973242  )
        15           Cu  tau(  15) = (   0.5000000   1.3857014   0.9973005  )
        16           Cu  tau(  16) = (   0.7499971   1.6165618   0.9973242  )
        17           Cu  tau(  17) = (   0.0000000   1.8474941   0.9971969  )
        18           Cu  tau(  18) = (   0.2500043   2.0784518   0.9970745  )
        19           Cu  tau(  19) = (   0.5000000   1.8474499   0.9971773  )
        20           Cu  tau(  20) = (   0.7499957   2.0784518   0.9970745  )
        21           Cu  tau(  21) = (   0.0000000   0.2308065   1.2457643  )
        22           Cu  tau(  22) = (   0.2499892  -0.0001010   1.2455764  )
        23           Cu  tau(  23) = (   0.5000000   0.2308938   1.2456746  )
        24           Cu  tau(  24) = (   0.7500108  -0.0001010   1.2455764  )
        25           Cu  tau(  25) = (   0.0000000   0.6929786   1.2456406  )
        26           Cu  tau(  26) = (   0.2499874   0.4619293   1.2457459  )
        27           Cu  tau(  27) = (   0.5000000   0.6929012   1.2456074  )
        28           Cu  tau(  28) = (   0.7500126   0.4619293   1.2457459  )
        29           Cu  tau(  29) = (   0.0000000   1.1546142   1.2455676  )
        30           Cu  tau(  30) = (   0.2499981   0.9237849   1.2455149  )
        31           Cu  tau(  31) = (   0.5000000   1.1545763   1.2455800  )
        32           Cu  tau(  32) = (   0.7500019   0.9237849   1.2455149  )
        33           Cu  tau(  33) = (   0.0000000   1.6166029   1.2456910  )
        34           Cu  tau(  34) = (   0.2500161   1.3855492   1.2457134  )
        35           Cu  tau(  35) = (   0.5000000   1.6166555   1.2458019  )
        36           Cu  tau(  36) = (   0.7499839   1.3855492   1.2457134  )
        37           Cu  tau(  37) = (   0.0000000   2.0784993   1.2455162  )
        38           Cu  tau(  38) = (   0.2500161   1.8476387   1.2456210  )
        39           Cu  tau(  39) = (   0.5000000   2.0784755   1.2455152  )
        40           Cu  tau(  40) = (   0.7499839   1.8476387   1.2456210  )
        41           Cu  tau(  41) = (   0.0000000  -0.0003182   1.4954305  )
        42           Cu  tau(  42) = (   0.2500224   0.2307186   1.4951678  )
        43           Cu  tau(  43) = (   0.5000000  -0.0002059   1.4952775  )
        44           Cu  tau(  44) = (   0.7499776   0.2307186   1.4951678  )
        45           Cu  tau(  45) = (   0.0000000   0.4620254   1.4950571  )
        46           Cu  tau(  46) = (   0.2500339   0.6931225   1.4952807  )
        47           Cu  tau(  47) = (   0.5000000   0.4619896   1.4952144  )
        48           Cu  tau(  48) = (   0.7499661   0.6931225   1.4952807  )
        49           Cu  tau(  49) = (   0.0000000   0.9238798   1.4954544  )
        50           Cu  tau(  50) = (   0.2499708   1.1544329   1.4953374  )
        51           Cu  tau(  51) = (   0.5000000   0.9237633   1.4954072  )
        52           Cu  tau(  52) = (   0.7500292   1.1544329   1.4953374  )
        53           Cu  tau(  53) = (   0.0000000   1.3854453   1.4952066  )
        54           Cu  tau(  54) = (   0.2499861   1.6167017   1.4951298  )
        55           Cu  tau(  55) = (   0.5000000   1.3853760   1.4951346  )
        56           Cu  tau(  56) = (   0.7500139   1.6167017   1.4951298  )
        57           Cu  tau(  57) = (   0.0000000   1.8477718   1.4952308  )
        58           Cu  tau(  58) = (   0.2499930   2.0785254   1.4954090  )
        59           Cu  tau(  59) = (   0.5000000   1.8478762   1.4953503  )
        60           Cu  tau(  60) = (   0.7500070   2.0785254   1.4954090  )
[...]
       105           C   tau( 105) = (   0.3331238   0.0962174   2.4339279  )
       106           C   tau( 106) = (   0.3331280   0.2886629   2.4336026  )
       107           C   tau( 107) = (   0.5000000  -0.0000818   2.3845247  )
       108           C   tau( 108) = (   0.5000000   0.3849277   2.3842266  )
       109           C   tau( 109) = (   0.6668762   0.0962174   2.4339279  )
       110           C   tau( 110) = (   0.6668720   0.2886629   2.4336026  )
       111           C   tau( 111) = (   0.8333677   0.0000435   2.3878725  )
       112           C   tau( 112) = (   0.8335100   0.3848966   2.3886722  )
       113           C   tau( 113) = (   0.0000000   0.6735163   2.3413021  )
       114           C   tau( 114) = (   0.0000000   0.8659398   2.4349851  )
       115           C   tau( 115) = (   0.1664759   0.5773226   2.3205108  )
       116           C   tau( 116) = (   0.1667428   0.9622141   2.4548005  )
       117           C   tau( 117) = (   0.3332094   0.6735984   2.3379001  )
       118           C   tau( 118) = (   0.3332031   0.8660537   2.4345514  )
       119           C   tau( 119) = (   0.5000000   0.5773685   2.3170817  )
       120           C_h tau( 120) = (   0.5000000   0.9623380   2.4538518  )
       121           C   tau( 121) = (   0.6667906   0.6735984   2.3379001  )
       122           C   tau( 122) = (   0.6667969   0.8660537   2.4345514  )
       123           C   tau( 123) = (   0.8335241   0.5773226   2.3205108  )
       124           C   tau( 124) = (   0.8332572   0.9622141   2.4548005  )
       125           C   tau( 125) = (   0.0000000   1.2508867   2.3373580  )
       126           C   tau( 126) = (   0.0000000   1.4433300   2.3361517  )
       127           C   tau( 127) = (   0.1667360   1.1546708   2.3859885  )
       128           C   tau( 128) = (   0.1668939   1.5396104   2.3857175  )
       129           C   tau( 129) = (   0.3335095   1.2509657   2.3399603  )
       130           C   tau( 130) = (   0.3334866   1.4433958   2.3407464  )
       131           C   tau( 131) = (   0.5000000   1.1547731   2.3885095  )
       132           C   tau( 132) = (   0.5000000   1.5396099   2.3901495  )
       133           C   tau( 133) = (   0.6664905   1.2509657   2.3399603  )
       134           C   tau( 134) = (   0.6665134   1.4433958   2.3407464  )
       135           C   tau( 135) = (   0.8332640   1.1546708   2.3859885  )
       136           C   tau( 136) = (   0.8331061   1.5396104   2.3857175  )
       137           C   tau( 137) = (   0.0000000   1.8283510   2.4320981  )
       138           C   tau( 138) = (   0.0000000   2.0207949   2.3383880  )
       139           C   tau( 139) = (   0.1668959   1.7320513   2.4536349  )
       140           C   tau( 140) = (   0.1666186   2.1169980   2.3187623  )
       141           C   tau( 141) = (   0.3334155   1.8282368   2.4361507  )
       142           C   tau( 142) = (   0.3334352   2.0206763   2.3390522  )
       143           C   tau( 143) = (   0.5000000   1.7319961   2.4573080  )
       144           C   tau( 144) = (   0.5000000   2.1168754   2.3192503  )
       145           C   tau( 145) = (   0.6665845   1.8282368   2.4361507  )
       146           C   tau( 146) = (   0.6665648   2.0206763   2.3390522  )
       147           C   tau( 147) = (   0.8331041   1.7320513   2.4536349  )
       148           C   tau( 148) = (   0.8333814   2.1169980   2.3187623  )

     number of k points=     6  gaussian smearing, width (Ry)=  0.1000
                       cart. coord. in units 2pi/alat
        k(    1) = (   0.0000000   0.0000000   0.0000000), wk =   0.2500000
        k(    2) = (   0.0000000  -0.2165064   0.0000000), wk =   0.2500000
        k(    3) = (   0.2500000   0.0000000   0.0000000), wk =   0.5000000
        k(    4) = (   0.2500000  -0.2165064   0.0000000), wk =   0.5000000
        k(    5) = (  -0.5000000   0.0000000   0.0000000), wk =   0.2500000
        k(    6) = (  -0.5000000  -0.2165064   0.0000000), wk =   0.2500000

     Largest allocated arrays     est. size (Mb)     dimensions
     Largest temporary arrays     est. size (Mb)     dimensions

     Initial potential from superposition of free atoms
     Check: negative starting charge=   -0.001798

     starting charge 1266.81751, renormalised to 1292.00000

     negative rho (up, down):  1.834E-03 0.000E+00
     Starting wfc are 1284 randomized atomic wfcs

     Self-consistent Calculation

     iteration #  1     ecut=    80.00 Ry     beta=0.70
     Davidson diagonalization with overlap
     c_bands:  1 eigenvalues not converged
     c_bands:  1 eigenvalues not converged
     ethr =  1.00E-04,  avg # of iterations = 34.8

     negative rho (up, down):  2.777E+01 0.000E+00

     total energy              =   -9522.56178576 Ry
     Harris-Foulkes estimate   =  -17291.24191474 Ry
     estimated scf accuracy    <  180099.15542568 Ry

     iteration #  2     ecut=    80.00 Ry     beta=0.70
     Davidson diagonalization with overlap
     ethr =  1.00E-02,  avg # of iterations = 12.8

[...]

     iteration # 36     ecut=    80.00 Ry     beta=0.70
     Davidson diagonalization with overlap
     c_bands:  1 eigenvalues not converged
     c_bands:  1 eigenvalues not converged
     ethr =  4.95E-09,  avg # of iterations = 11.0

[...]

     total energy              =  -12706.05105705 Ry
     Harris-Foulkes estimate   =  -12706.05105703 Ry
     estimated scf accuracy    <       0.00000004 Ry

     iteration # 44     ecut=    80.00 Ry     beta=0.70
     Davidson diagonalization with overlap
     ethr =  3.12E-12,  avg # of iterations =  2.3

     negative rho (up, down):  2.029E-03 0.000E+00

     End of self-consistent calculation

          k = 0.0000 0.0000 0.0000 (256287 PWs)   bands (ev):

   -16.5579 -15.7357 -15.6368 -15.0010 -14.5387 -14.2195 -14.0765 -13.7396
   -13.7019 -13.6564 -13.5896 -13.3162 -12.8342 -12.7207 -12.6293 -12.5962
   -12.4620 -11.6062 -11.4760 -11.3088 -10.6694 -10.6146  -9.6296  -9.6114
    -9.4709  -8.9452  -8.9346  -8.3394  -8.2229  -8.1633  -8.0497  -7.8362
    -7.4225  -7.3655  -7.2704  -7.1097  -7.0400  -6.8110  -6.7237  -6.2224
    -6.2216  -6.1121  -5.8821  -5.6624  -5.5843  -5.5800  -5.5410  -5.4866
    -5.2380  -5.1499  -5.1430  -5.0771  -5.0165  -4.6933  -4.6299  -4.5492
    -4.5306  -4.3985  -4.0888  -4.0788  -3.9802  -3.8017  -3.7932  -3.7390
    -3.6730  -3.5516  -3.5030  -3.4976  -3.4417  -3.2492  -3.1642  -3.1512
    -3.1038  -3.1009  -3.0977  -3.0949  -3.0728  -3.0388  -2.9170  -2.8449
    -2.8290  -2.7819  -2.7802  -2.7351  -2.6954  -2.6814  -2.5880  -2.5496
    -2.4480  -2.4318  -2.4223  -2.4143  -2.3836  -2.3140  -2.2817  -2.2792
    -2.2471  -2.2463  -2.2460  -2.2452  -2.2042  -2.1698  -2.1230  -2.1163
    -2.1161  -2.1134  -2.1112  -1.9774  -1.9473  -1.9322  -1.9307  -1.9209
    -1.8834  -1.8686  -1.8406  -1.8342  -1.8210  -1.8174  -1.8007  -1.7736
    -1.7568  -1.7525  -1.7409  -1.7352  -1.6957  -1.6725  -1.6623  -1.6526
    -1.6391  -1.6246  -1.6109  -1.6092  -1.6067  -1.5904  -1.5828  -1.5672
    -1.5200  -1.5153  -1.5074  -1.4986  -1.4983  -1.4480  -1.4237  -1.4179
    -1.4018  -1.4011  -1.3940  -1.3700  -1.3558  -1.3554  -1.3456  -1.3070
    -1.3065  -1.2869  -1.2850  -1.2581  -1.2572  -1.1667  -1.1503  -1.1492
    -1.1461  -1.1445  -1.1433  -1.1407  -1.1239  -1.1190  -1.1119  -1.1101
    -1.1087  -1.1057  -1.1037  -1.1008  -1.0973  -1.0877  -1.0756  -1.0502
    -1.0346  -1.0331  -1.0303  -1.0251  -1.0173  -1.0154  -0.9587  -0.9581
    -0.9553  -0.9509  -0.9494  -0.9486  -0.9485  -0.9457  -0.9457  -0.9446
    -0.9435  -0.9432  -0.9430  -0.9373  -0.9370  -0.9225  -0.9179  -0.8886
    -0.8240  -0.8021  -0.7876  -0.7872  -0.7807  -0.7772  -0.7578  -0.7554
    -0.7410  -0.7404  -0.7201  -0.7182  -0.6982  -0.6939  -0.6921  -0.6880
    -0.6699  -0.6588  -0.6560  -0.6552  -0.6547  -0.6544  -0.6491  -0.6472
    -0.6434  -0.5926  -0.5923  -0.5847  -0.5571  -0.5437  -0.5341  -0.5312
    -0.5297  -0.5253  -0.5221  -0.5204  -0.5044  -0.5035  -0.5002  -0.4998
    -0.4984  -0.4980  -0.4974  -0.4969  -0.4816  -0.4815  -0.4800  -0.4505
    -0.4475  -0.4276  -0.4097  -0.4046  -0.4005  -0.3952  -0.3926  -0.3872
    -0.3870  -0.3827  -0.3593  -0.3591  -0.3583  -0.3581  -0.3559  -0.3533
    -0.3381  -0.3371  -0.3181  -0.3171  -0.3168  -0.3136  -0.3129  -0.3125
    -0.3010  -0.2994  -0.2987  -0.2978  -0.2888  -0.2885  -0.2864  -0.2834
    -0.2719  -0.2694  -0.2626  -0.2238  -0.2210  -0.2178  -0.2175  -0.2138
    -0.1852  -0.1827  -0.1798  -0.1792  -0.1740  -0.1700  -0.1614  -0.1568
    -0.1566  -0.1558  -0.1213  -0.1100  -0.1067  -0.1051  -0.0945  -0.0793
    -0.0737  -0.0732  -0.0715  -0.0705  -0.0671  -0.0624  -0.0566  -0.0520
    -0.0496  -0.0485  -0.0476  -0.0435  -0.0423  -0.0401  -0.0319  -0.0314
    -0.0188  -0.0159  -0.0094  -0.0089  -0.0031   0.0061   0.0353   0.0364
     0.0455   0.0812   0.0878   0.0925   0.0953   0.1065   0.1161   0.1380
     0.1389   0.1420   0.1423   0.1442   0.1460   0.1475   0.1571   0.1654
     0.1687   0.1720   0.1792   0.1799   0.2118   0.2307   0.2430   0.2440
     0.2466   0.2474   0.2495   0.2740   0.2777   0.2780   0.2811   0.2827
     0.2850   0.2952   0.3206   0.3244   0.3249   0.3285   0.3409   0.3464
     0.3565   0.3566   0.3649   0.3773   0.3812   0.3948   0.3962   0.3977
     0.4001   0.4013   0.4016   0.4027   0.4079   0.4085   0.4249   0.4290
     0.4312   0.4346   0.4384   0.4406   0.4470   0.4483   0.4504   0.4528
     0.4611   0.4639   0.4684   0.4688   0.4752   0.4853   0.4911   0.4948
     0.5039   0.5084   0.5096   0.5104   0.5188   0.5386   0.5401   0.5494
     0.5551   0.5562   0.5565   0.5573   0.5595   0.5683   0.5726   0.5752
     0.5776   0.5817   0.5902   0.5930   0.5955   0.6024   0.6140   0.6250
     0.6318   0.6356   0.6390   0.6421   0.6469   0.6479   0.6482   0.6502
     0.6540   0.6541   0.6553   0.6640   0.6744   0.6781   0.6843   0.7045
     0.7072   0.7138   0.7160   0.7239   0.7250   0.7398   0.7451   0.7533
     0.7561   0.7806   0.7808   0.7856   0.7870   0.7892   0.7920   0.7996
     0.8016   0.8042   0.8109   0.8149   0.8183   0.8208   0.8225   0.8372
     0.8377   0.8389   0.8416   0.8438   0.8478   0.8591   0.8659   0.8740
     0.8879   0.8891   0.8905   0.8916   0.8978   0.9022   0.9024   0.9090
[...]
     3.7026   3.7050   3.7130   3.7226   3.8565   3.8772   3.8887   3.8919
     3.8967   3.8969   4.0264   4.0294   4.1528   4.1845   4.2410   4.2940
     4.3354   4.3424   4.4221   4.5125   4.5727   4.5750   4.6161   4.6642
     4.6728   5.1676   5.1825   5.2984   5.4960   5.5674   5.5879   5.6799
     5.6874   5.7285   5.8582   5.9034   5.9081   5.9211   6.0108   6.2205
     6.3189   6.3555   6.3745   6.4641   6.4645   6.4794   6.4863   6.5125
     6.5409   6.6698   6.6747   6.6878   6.6902   6.7687   6.8887   6.9244
     6.9754   6.9937   7.1072   7.1312   7.2266   7.2358   7.2379   7.2773
     7.3021   7.3029   7.6081   7.6276   7.6283   7.6636   7.7102   7.7694
     7.7834   7.8022   7.9762   8.0750   8.1978   8.2322   8.2357   8.2639
     8.2804   8.2951   8.3063   8.3367   8.3562   8.3794   8.4503   8.5001
     8.5510   8.5574   8.5904   8.6142   8.6327   8.6620   8.7526   8.7722
     8.7933   8.8113   8.8204   8.8868   8.8909   8.9421   9.0956   9.1275
     9.1300   9.2137   9.2501   9.2710   9.2838   9.2894   9.4613   9.4695
     9.5118   9.5156   9.5560   9.7305   9.7391   9.8006   9.8484

[...]

          k = 0.2500-0.2165 0.0000 (256316 PWs)   bands (ev):

[...]

          k =-0.5000 0.0000 0.0000 (256496 PWs)   bands (ev):

[...]

          k =-0.5000-0.2165 0.0000 (256328 PWs)   bands (ev):

   -16.4204 -15.4352 -15.3276 -15.3021 -14.9581 -14.7271 -14.7000 -14.5722
   -13.7231 -13.3821 -13.3536 -13.2925 -11.9838 -11.8139 -11.6016 -11.5015
   -11.4298 -11.3896 -11.3466 -11.3035 -11.0955 -11.0202 -10.8966 -10.8156
    -9.7143  -9.5596  -9.3533  -9.3479  -8.7727  -8.3361  -8.3088  -8.2464
    -7.9243  -7.8678  -7.7292  -7.6609  -6.3178  -6.0662  -5.9254  -5.9052
    -5.4855  -5.2780  -5.2750  -5.2747  -5.2665  -5.1542  -4.9357  -4.7899
    -4.7139  -4.5698  -4.3857  -4.3803  -4.3757  -4.3390  -4.3095  -4.3041
    -4.2941  -4.2863  -4.2799  -4.2796  -4.1145  -4.0283  -3.9885  -3.8594
    -3.8580  -3.8038  -3.7970  -3.7085  -3.6932  -3.6808  -3.5981  -3.5902
    -3.5221  -3.4975  -3.4094  -3.4021  -3.3916  -3.3740  -3.3572  -3.3520
    -3.0164  -2.9363  -2.9153  -2.7286  -2.6744  -2.6701  -2.6685  -2.6684
    -2.6339  -2.5942  -2.5909  -2.5652  -2.5366  -2.5235  -2.4232  -2.3555
    -2.2517  -2.1928  -2.1877  -2.1720  -2.1619  -2.0934  -2.0488  -2.0135
    -2.0120  -2.0020  -1.9881  -1.9441  -1.8981  -1.8980  -1.8973  -1.8955
    -1.6904  -1.6887  -1.6829  -1.6803  -1.6038  -1.5898  -1.5885  -1.5873
    -1.5870  -1.5849  -1.5396  -1.5393  -1.5296  -1.5290  -1.5280  -1.5278
    -1.5147  -1.4832  -1.4825  -1.4824  -1.4808  -1.4802  -1.4770  -1.4768
    -1.4748  -1.4627  -1.4535  -1.4535  -1.4530  -1.4530  -1.4083  -1.4076
    -1.4069  -1.4018  -1.3596  -1.3374  -1.3299  -1.3185  -1.2943  -1.2923
    -1.2857  -1.2856  -1.2855  -1.2855  -1.2725  -1.2660  -1.2608  -1.2602
    -1.2421  -1.2385  -1.2372  -1.2357  -1.2172  -1.2164  -1.2100  -1.2099
    -1.2081  -1.2064  -1.2038  -1.2021  -1.1524  -1.1523  -1.1522  -1.1518
    -1.1355  -1.1355  -1.1353  -1.1351  -1.1342  -1.1341  -1.1339  -1.1336
    -0.9871  -0.9865  -0.9859  -0.9848  -0.9500  -0.9492  -0.9463  -0.9463
    -0.9314  -0.9278  -0.9238  -0.9079  -0.8734  -0.8720  -0.8686  -0.8685
    -0.8680  -0.8678  -0.8573  -0.8563  -0.8046  -0.8012  -0.7998  -0.7982
    -0.7892  -0.7817  -0.7815  -0.7802  -0.7731  -0.7728  -0.7712  -0.7675
    -0.7417  -0.7216  -0.7076  -0.6760  -0.6719  -0.6654  -0.6623  -0.6560
    -0.6541  -0.6242  -0.6033  -0.5994  -0.5938  -0.5923  -0.5867  -0.5519
    -0.5486  -0.5475  -0.5425  -0.5306  -0.5302  -0.5297  -0.5293  -0.5196
    -0.5103  -0.4957  -0.4902  -0.4890  -0.4886  -0.4874  -0.4873  -0.4749
    -0.4643  -0.4278  -0.4228  -0.4219  -0.3710  -0.3709  -0.3706  -0.3705
    -0.3551  -0.3550  -0.3543  -0.3543  -0.3413  -0.3411  -0.3323  -0.3322
    -0.2757  -0.2582  -0.2575  -0.2537  -0.2525  -0.2508  -0.2507  -0.2486
    -0.2465  -0.2264  -0.2251  -0.2185  -0.2072  -0.2071  -0.2064  -0.2060
    -0.1979  -0.1978  -0.1953  -0.1949  -0.1921  -0.1920  -0.1917  -0.1917
    -0.1579  -0.1389  -0.1320  -0.1256  -0.1180  -0.1030  -0.1004  -0.1000
    -0.0956  -0.0915  -0.0694  -0.0590  -0.0560  -0.0552  -0.0278  -0.0195
    -0.0190  -0.0182  -0.0166  -0.0163  -0.0153  -0.0072  -0.0059  -0.0052
    -0.0016  -0.0002   0.0014   0.0043   0.0063   0.0084   0.0117   0.0119
     0.0123   0.0125   0.0224   0.0255   0.0277   0.0289   0.0398   0.0519
     0.0520   0.0554   0.0556   0.0574   0.0600   0.0636   0.0643   0.0771
     0.1042   0.1147   0.1152   0.1155   0.1172   0.1448   0.1485   0.1488
     0.1538   0.1958   0.2075   0.2148   0.2233   0.2252   0.2262   0.2272
     0.2491   0.2497   0.2501   0.2532   0.2619   0.2624   0.2634   0.2647
     0.2656   0.2659   0.2675   0.2686   0.2690   0.2714   0.2786   0.2900
     0.3048   0.3153   0.3451   0.3460   0.3466   0.3474   0.3558   0.3711
     0.3720   0.3725   0.3726   0.3751   0.3791   0.3823   0.3827   0.3880
     0.3916   0.4024   0.4054   0.4082   0.4108   0.4109   0.4168   0.4261
     0.4269   0.4493   0.4498   0.4522   0.4575   0.4648   0.4677   0.4685
     0.4696   0.4703   0.4750   0.4768   0.4777   0.4798   0.4811   0.4842
     0.4846   0.4915   0.4942   0.5030   0.5046   0.5224   0.5232   0.5285
     0.5349   0.5570   0.5640   0.5667   0.5693   0.5717   0.5815   0.5838
     0.5854   0.5884   0.5886   0.5951   0.6014   0.6047   0.6218   0.6221
     0.6257   0.6287   0.6298   0.6305   0.6341   0.6345   0.6410   0.6435
     0.6787   0.6885   0.6944   0.6969   0.7060   0.7132   0.7133   0.7140
     0.7142   0.7224   0.7275   0.7477   0.7478   0.7484   0.7491   0.7628
     0.7678   0.7704   0.7955   0.8057   0.8199   0.8199   0.8269   0.8270
     0.8306   0.8407   0.8482   0.8489   0.8509   0.8516   0.8567   0.8575
     0.8908   0.8996   0.9132   0.9138   0.9150   0.9181   0.9267   0.9283
[...]
     3.8332   4.0796   4.0834   4.1074   4.1079   4.1354   4.1628   4.2099
     4.2247   4.2777   4.2829   4.3058   4.3482   4.3872   4.4266   4.4295
     4.4607   4.4772   4.5471   4.5538   4.6241   4.6254   4.6775   4.7151
     4.7318   4.8545   4.9514   5.0436   5.0773   5.0790   5.1298   5.1409
     5.1803   5.1967   5.2300   5.2978   5.4525   5.4826   5.5344   5.5504
     5.6203   5.6326   5.6862   5.6917   5.9916   6.0074   6.0482   6.0495
     6.2573   6.3111   6.3227   6.4222   6.6812   6.6888   6.6915   6.6937
     6.9480   6.9679   7.0089   7.0532   7.0917   7.0962   7.1009   7.1085
     7.2607   7.2660   7.2758   7.2866   7.2914   7.3003   7.4760   7.5170
     7.5301   7.5682   7.7001   7.7611   7.8111   7.8707   7.9363   7.9444
     8.0967   8.1048   8.1286   8.1379   8.3550   8.4126   8.4172   8.4791
     8.5318   8.5601   8.6225   8.6323   8.7549   8.7955   8.8355   8.8400
     8.8548   8.8568   8.8610   8.8622   8.8936   8.8952   8.9105   8.9162
     9.0647   9.1022   9.1070   9.1123   9.1148   9.2047   9.2199   9.2525
     9.3098   9.4069   9.4802   9.5070   9.5644   9.5926   9.6765

     the Fermi energy is     3.2259 ev

!    total energy              =  -12706.05105703 Ry
     Harris-Foulkes estimate   =  -12706.05105706 Ry
     estimated scf accuracy    <          4.8E-09 Ry

     The total energy is the sum of the following terms:

     one-electron contribution = -109191.64628401 Ry
     hartree contribution      =   55954.33811791 Ry
     xc contribution           =   -4445.12196613 Ry
     ewald contribution        =   44982.84522999 Ry
     Dispersion Correction     =      -2.97802109 Ry
     smearing contrib. (-TS)   =      -3.48813370 Ry

     convergence has been achieved in  44 iterations

     Writing output data file gc.save

     General routines

     Parallel routines

   This run was terminated on:  17:14:33  30Jan2018

   JOB DONE.