     Program PWSCF v.5.4.0 starts on  6Sep2017 at 17:59: 0

     Current dimensions of program PWSCF are:
     Max number of different atomic species (ntypx) = 10
     Max number of k-points (npk) =  40000
     Max angular momentum in pseudopotentials (lmaxx) =  3
     WARNING: atomic wfc #  2 for atom type 4 has zero norm
     WARNING: atomic wfc #  4 for atom type 4 has zero norm
     WARNING: atomic wfc #  5 for atom type 4 has zero norm

     Parameters for Dispersion Correction:
       atom      VdW radius       C_6

        Cu         2.952        374.666
        C_h        2.744         60.710
        C          2.744         60.710
        O          2.536         24.284
        H          1.892          4.857

     bravais-lattice index     =            0
     lattice parameter (alat)  =      13.9425  a.u.
     unit-cell volume          =   21209.0878 (a.u.)^3
     number of atoms/cell      =          150
     number of atomic types    =            5
     number of electrons       =      1302.00
     number of Kohn-Sham states=          781
     kinetic-energy cutoff     =      80.0000  Ry
     charge density cutoff     =     320.0000  Ry
     convergence threshold     =      1.0E-08
     mixing beta               =       0.7000
     number of iterations used =            8  local-TF  mixing
     Exchange-correlation      =  SLA  PW   PBE  PBE ( 1  4  3  4 0 0)

     celldm(1)=  13.942539  celldm(2)=   0.000000  celldm(3)=   0.000000
     celldm(4)=   0.000000  celldm(5)=   0.000000  celldm(6)=   0.000000

     crystal axes: (cart. coord. in units of alat)
               a(1) = (   1.000000   0.000000   0.000000 )
               a(2) = (   0.000000   2.309401   0.000000 )
               a(3) = (   0.000000   0.000000   3.388418 )

     reciprocal axes: (cart. coord. in units 2 pi/alat)
               b(1) = (  1.000000  0.000000  0.000000 )
               b(2) = (  0.000000  0.433013  0.000000 )
               b(3) = (  0.000000  0.000000  0.295123 )

     PseudoPot. # 1 for Cu read from file:
     /home/549/hxw549/Short/pseudopotentials/Cu.pbe-n-van_ak.UPF
     MD5 check sum: 601f7c30f7467666bec936e0661ce3e1
     Pseudo is Ultrasoft + core correction, Zval = 11.0
     Generated by new atomic code, or converted to UPF format
     Using radial grid of  867 points,  6 beta functions with:
                l(1) =   0
                l(2) =   0
                l(3) =   1
                l(4) =   1
                l(5) =   2
                l(6) =   2
     Q(r) pseudized with  8 coefficients,  rinner =    1.400   1.400   1.400
                                                       1.400   1.400

     PseudoPot. # 2 for C  read from file:
     /home/549/hxw549/Short/pseudopotentials/C.star1s-pbe-mt_gipaw.UPF
     MD5 check sum: ef0cb3dee31bd9e4ba2a832a2c716264
     Pseudo is Norm-conserving, Zval =  5.0
     Generated by new atomic code, or converted to UPF format
     Using radial grid of 1073 points,  1 beta functions with:
                l(1) =   0

     PseudoPot. # 3 for C  read from file:
     /home/549/hxw549/Short/pseudopotentials/C.pbe-mt_gipaw.UPF
     MD5 check sum: 5ac2f21f2c440b14befe521540822c15
     Pseudo is Norm-conserving, Zval =  4.0
     Generated by new atomic code, or converted to UPF format
     Using radial grid of 1073 points,  1 beta functions with:
                l(1) =   0

     PseudoPot. # 4 for O  read from file:
     /home/549/hxw549/Short/pseudopotentials/O.pbe-van_gipaw.UPF
     MD5 check sum: 5ce2a047509d4f331db576c963e74b29
     Pseudo is Ultrasoft, Zval =  6.0
     Generated by new atomic code, or converted to UPF format
     Using radial grid of 1095 points,  4 beta functions with:
                l(1) =   0
                l(2) =   0
                l(3) =   1
                l(4) =   1
     Q(r) pseudized with 0 coefficients

     PseudoPot. # 5 for H  read from file:
     /home/549/hxw549/Short/pseudopotentials/H.pbe-van_ak.UPF
     MD5 check sum: 077eb6d537518a38cb46c6de387227b7
     Pseudo is Ultrasoft, Zval =  1.0
     Generated by new atomic code, or converted to UPF format
     Using radial grid of  615 points,  1 beta functions with:
                l(1) =   0
     Q(r) pseudized with  8 coefficients,  rinner =    0.800

     atomic species   valence    mass     pseudopotential
        Cu            11.00    63.54600     Cu( 1.00)
        C_h            5.00    12.01070     C ( 1.00)
        C              4.00    12.01070     C ( 1.00)
        O              6.00    15.99940     O ( 1.00)
        H              1.00     1.00783     H ( 1.00)

     No symmetry found

   Cartesian axes

     site n.     atom                  positions (alat units)
         1           Cu  tau(   1) = (   0.0000796  -0.0010194   0.9996711  )
         2           Cu  tau(   2) = (   0.2500655   0.2302525   0.9998070  )
         3           Cu  tau(   3) = (   0.5000782  -0.0009871   0.9997096  )
         4           Cu  tau(   4) = (   0.7500925   0.2302455   0.9998059  )
         5           Cu  tau(   5) = (   0.0000785   0.4612871   0.9997269  )
         6           Cu  tau(   6) = (   0.2500641   0.6920697   0.9993800  )
         7           Cu  tau(   7) = (   0.5000814   0.4612918   0.9996504  )
         8           Cu  tau(   8) = (   0.7500985   0.6920755   0.9993862  )
         9           Cu  tau(   9) = (   0.0000831   0.9226495   0.9992261  )
        10           Cu  tau(  10) = (   0.2501082   1.1530621   0.9994448  )
        11           Cu  tau(  11) = (   0.5000823   0.9225993   0.9992402  )
        12           Cu  tau(  12) = (   0.7500588   1.1530635   0.9994423  )
        13           Cu  tau(  13) = (   0.0000837   1.3835599   0.9997329  )
        14           Cu  tau(  14) = (   0.2500624   1.6144357   0.9998048  )
        15           Cu  tau(  15) = (   0.5000842   1.3836349   0.9997726  )
        16           Cu  tau(  16) = (   0.7501032   1.6144320   0.9998040  )
        17           Cu  tau(  17) = (   0.0000797   1.8456347   0.9996583  )
        18           Cu  tau(  18) = (   0.2500996   2.0770019   0.9995635  )
        19           Cu  tau(  19) = (   0.5000828   1.8455838   0.9996249  )
        20           Cu  tau(  20) = (   0.7500601   2.0770024   0.9995695  )
        21           Cu  tau(  21) = (   0.0000762   0.2300880   1.2478020  )
        22           Cu  tau(  22) = (   0.2500749  -0.0011159   1.2475204  )
        23           Cu  tau(  23) = (   0.5000774   0.2302010   1.2477392  )
        24           Cu  tau(  24) = (   0.7500776  -0.0011076   1.2475295  )
        25           Cu  tau(  25) = (   0.0000791   0.6922011   1.2480278  )
        26           Cu  tau(  26) = (   0.2500708   0.4613499   1.2479295  )
        27           Cu  tau(  27) = (   0.5000781   0.6921136   1.2479976  )
        28           Cu  tau(  28) = (   0.7500843   0.4613461   1.2479221  )
        29           Cu  tau(  29) = (   0.0000792   1.1528664   1.2482450  )
        30           Cu  tau(  30) = (   0.2500767   0.9225201   1.2481436  )
        31           Cu  tau(  31) = (   0.5000811   1.1528467   1.2482331  )
        32           Cu  tau(  32) = (   0.7500827   0.9225211   1.2481488  )
        33           Cu  tau(  33) = (   0.0000796   1.6146638   1.2478472  )
        34           Cu  tau(  34) = (   0.2500780   1.3835920   1.2481526  )
        35           Cu  tau(  35) = (   0.5000826   1.6147432   1.2478907  )
        36           Cu  tau(  36) = (   0.7500845   1.3835882   1.2481608  )
        37           Cu  tau(  37) = (   0.0000753   2.0771625   1.2473394  )
        38           Cu  tau(  38) = (   0.2500797   1.8459518   1.2474804  )
        39           Cu  tau(  39) = (   0.5000788   2.0770921   1.2473374  )
        40           Cu  tau(  40) = (   0.7500786   1.8459481   1.2474855  )
        41           Cu  tau(  41) = (   0.0000736  -0.0014157   1.4968003  )
        42           Cu  tau(  42) = (   0.2501054   0.2298053   1.4967075  )
        43           Cu  tau(  43) = (   0.5000753  -0.0013072   1.4965172  )
        44           Cu  tau(  44) = (   0.7500440   0.2298195   1.4967296  )
        45           Cu  tau(  45) = (   0.0000715   0.4610974   1.4969703  )
        46           Cu  tau(  46) = (   0.2500888   0.6919294   1.4977424  )
        47           Cu  tau(  47) = (   0.5000768   0.4610199   1.4971307  )
        48           Cu  tau(  48) = (   0.7500576   0.6919217   1.4977398  )
        49           Cu  tau(  49) = (   0.0000730   0.9224488   1.4981802  )
        50           Cu  tau(  50) = (   0.2499887   1.1529644   1.4978341  )
        51           Cu  tau(  51) = (   0.5000709   0.9223233   1.4980553  )
        52           Cu  tau(  52) = (   0.7501545   1.1529594   1.4978490  )
        53           Cu  tau(  53) = (   0.0000770   1.3839580   1.4973583  )
        54           Cu  tau(  54) = (   0.2500530   1.6153014   1.4967700  )
        55           Cu  tau(  55) = (   0.5000690   1.3839959   1.4971714  )
        56           Cu  tau(  56) = (   0.7500984   1.6153015   1.4967707  )
        57           Cu  tau(  57) = (   0.0000733   1.8464668   1.4964703  )
        58           Cu  tau(  58) = (   0.2500842   2.0772456   1.4966335  )
        59           Cu  tau(  59) = (   0.5000792   1.8465124   1.4966717  )
        60           Cu  tau(  60) = (   0.7500644   2.0772510   1.4966332  )
[...]
       134           C   tau( 134) = (   0.6668966   1.4466375   2.3882526  )
       135           C   tau( 135) = (   0.8336471   1.1579389   2.3824963  )
       136           C   tau( 136) = (   0.8335007   1.5428799   2.3852986  )
       137           C   tau( 137) = (   0.0003615   1.8316508   2.3835264  )
       138           C   tau( 138) = (   0.0003333   2.0241360   2.3864695  )
       139           C   tau( 139) = (   0.1672436   1.7353275   2.3855411  )
       140           C   tau( 140) = (   0.1669289   2.1203047   2.3860356  )
       141           C   tau( 141) = (   0.3337845   1.8314735   2.3877347  )
       142           C   tau( 142) = (   0.3337475   2.0239656   2.3853679  )
       143           C   tau( 143) = (   0.5003620   1.7352461   2.3894686  )
       144           C   tau( 144) = (   0.5003277   2.1201495   2.3841265  )
       145           C   tau( 145) = (   0.6669386   1.8314724   2.3878035  )
       146           C   tau( 146) = (   0.6669171   2.0239714   2.3854075  )
       147           C   tau( 147) = (   0.8334847   1.7353460   2.3856745  )
       148           C   tau( 148) = (   0.8337301   2.1203065   2.3860703  )
       149           C_h tau( 149) = (   0.4817526   0.9548742   2.8124093  )
       150           O   tau( 150) = (   0.4817526   0.9548742   2.9689542  )

     number of k points=     6  gaussian smearing, width (Ry)=  0.1000
                       cart. coord. in units 2pi/alat
        k(    1) = (   0.0000000   0.0000000   0.0000000), wk =   0.2500000
        k(    2) = (   0.0000000  -0.2165064   0.0000000), wk =   0.2500000
        k(    3) = (   0.2500000   0.0000000   0.0000000), wk =   0.5000000
        k(    4) = (   0.2500000  -0.2165064   0.0000000), wk =   0.5000000
        k(    5) = (  -0.5000000   0.0000000   0.0000000), wk =   0.2500000
        k(    6) = (  -0.5000000  -0.2165064   0.0000000), wk =   0.2500000

     Largest allocated arrays     est. size (Mb)     dimensions
     Largest temporary arrays     est. size (Mb)     dimensions

     Initial potential from superposition of free atoms
     Check: negative starting charge=   -0.001528

     starting charge 1276.31751, renormalised to 1302.00000

     negative rho (up, down):  1.559E-03 0.000E+00
     Starting wfc are 1296 randomized atomic wfcs

     Self-consistent Calculation

     iteration #  1     ecut=    80.00 Ry     beta=0.70
     Davidson diagonalization with overlap
     c_bands:  4 eigenvalues not converged
     ethr =  1.00E-04,  avg # of iterations = 24.5

     negative rho (up, down):  2.977E+01 0.000E+00

     total energy              =   -9518.67846827 Ry
     Harris-Foulkes estimate   =  -17460.36087393 Ry
     estimated scf accuracy    <  185235.05853942 Ry

     iteration #  2     ecut=    80.00 Ry     beta=0.70
     Davidson diagonalization with overlap
     ethr =  1.00E-02,  avg # of iterations = 13.0

[...]

     iteration # 35     ecut=    80.00 Ry     beta=0.70
     Davidson diagonalization with overlap
     c_bands:  1 eigenvalues not converged
     ethr =  6.46E-08,  avg # of iterations =  8.5

[...]

     total energy              =  -12750.25437599 Ry
     Harris-Foulkes estimate   =  -12750.25437598 Ry
     estimated scf accuracy    <       0.00000004 Ry

     iteration # 44     ecut=    80.00 Ry     beta=0.70
     Davidson diagonalization with overlap
     ethr =  2.76E-12,  avg # of iterations =  2.0

     negative rho (up, down):  1.801E-03 0.000E+00

     End of self-consistent calculation

          k = 0.0000 0.0000 0.0000 (256287 PWs)   bands (ev):

   -22.7110 -16.3112 -15.9402 -15.9377 -14.8333 -14.8323 -14.3487 -14.3463
   -13.9875 -13.9851 -13.9848 -13.9824 -13.0334 -13.0322 -12.9177 -12.9166
   -12.9153 -12.9139 -11.2235 -11.2226 -11.2219 -11.2199 -11.0140 -10.0189
    -9.3370  -9.3368  -9.3349  -9.3340  -8.4604  -8.4573  -8.4569  -8.4542
    -7.4690  -7.4658  -7.3939  -7.3928  -7.3909  -7.3899  -7.3772  -7.3769
    -7.1838  -5.9931  -5.8373  -5.8366  -5.8332  -5.8325  -5.6748  -5.6736
    -5.6719  -5.6709  -5.4600  -5.4575  -5.0547  -4.5939  -4.5912  -4.5723
    -4.5591  -4.5371  -4.5248  -4.5235  -4.1951  -4.1949  -4.0797  -4.0725
    -3.9622  -3.9621  -3.3848  -3.3836  -3.3819  -3.3815  -3.3812  -3.3803
    -3.2349  -3.2211  -3.2197  -3.2184  -3.1902  -3.1466  -2.9853  -2.9830
    -2.9824  -2.9805  -2.9529  -2.8725  -2.8693  -2.7777  -2.7485  -2.7054
    -2.6924  -2.6343  -2.6108  -2.5663  -2.5659  -2.5640  -2.5626  -2.3346
    -2.3336  -2.3332  -2.3266  -2.2703  -2.2561  -2.1665  -2.1664  -2.1270
    -2.1268  -2.1264  -2.1262  -1.9990  -1.9972  -1.9962  -1.9945  -1.9945
    -1.9933  -1.9933  -1.9760  -1.9244  -1.8599  -1.8590  -1.8116  -1.7504
    -1.7102  -1.7102  -1.7097  -1.7095  -1.6553  -1.6543  -1.6450  -1.6322
    -1.6299  -1.5689  -1.5599  -1.5356  -1.5353  -1.5340  -1.5321  -1.4993
    -1.4991  -1.4975  -1.4953  -1.4890  -1.4871  -1.4067  -1.4056  -1.3870
    -1.3405  -1.3403  -1.3397  -1.3386  -1.3252  -1.2713  -1.2352  -1.2335
    -1.2239  -1.2097  -1.2076  -1.1842  -1.1834  -1.1644  -1.1619  -1.1395
    -1.1361  -1.0840  -1.0816  -1.0633  -1.0628  -1.0615  -1.0581  -1.0190
    -1.0159  -1.0036  -0.9953  -0.9945  -0.9929  -0.9928  -0.9913  -0.9905
    -0.9868  -0.9866  -0.9683  -0.9305  -0.9274  -0.9230  -0.8968  -0.8947
    -0.8941  -0.8890  -0.8885  -0.8875  -0.8299  -0.8286  -0.8276  -0.8275
    -0.8263  -0.8255  -0.8246  -0.8222  -0.8214  -0.8207  -0.8206  -0.8182
    -0.8158  -0.8146  -0.8146  -0.7976  -0.7974  -0.7568  -0.7421  -0.7415
    -0.7386  -0.7317  -0.6611  -0.6611  -0.6565  -0.6562  -0.6287  -0.6276
    -0.6133  -0.6132  -0.5894  -0.5893  -0.5736  -0.5734  -0.5727  -0.5723
    -0.5556  -0.5465  -0.5460  -0.5352  -0.5349  -0.5327  -0.5322  -0.5238
    -0.5230  -0.5110  -0.5104  -0.4632  -0.4631  -0.4101  -0.4099  -0.3979
    -0.3962  -0.3956  -0.3945  -0.3784  -0.3783  -0.3748  -0.3748  -0.3744
    -0.3744  -0.3715  -0.3714  -0.3558  -0.3558  -0.3407  -0.3404  -0.3398
    -0.3395  -0.3237  -0.3230  -0.2703  -0.2678  -0.2674  -0.2608  -0.2606
    -0.2338  -0.2337  -0.2328  -0.2327  -0.2152  -0.2149  -0.2138  -0.2138
    -0.2127  -0.1884  -0.1882  -0.1874  -0.1868  -0.1820  -0.1818  -0.1811
    -0.1809  -0.1794  -0.1761  -0.1594  -0.1587  -0.1579  -0.1572  -0.1567
    -0.1377  -0.0890  -0.0888  -0.0866  -0.0864  -0.0801  -0.0375  -0.0370
    -0.0354  -0.0349  -0.0327  -0.0325  -0.0321  -0.0320  -0.0318  -0.0141
    -0.0133   0.0215   0.0224   0.0267   0.0271   0.0285   0.0529   0.0531
     0.0565   0.0568   0.0577   0.0611   0.0765   0.0772   0.0775   0.0777
     0.0790   0.0796   0.0948   0.0950   0.0953   0.0954   0.1078   0.1082
     0.1083   0.1091   0.1320   0.1329   0.1566   0.1597   0.1661   0.1680
     0.1991   0.1999   0.2003   0.2008   0.2247   0.2281   0.2674   0.2678
     0.2686   0.2694   0.2704   0.2737   0.3042   0.3063   0.3066   0.3073
     0.3078   0.3098   0.3168   0.3179   0.3554   0.3749   0.3749   0.3795
     0.3813   0.3826   0.3833   0.3844   0.4071   0.4168   0.4177   0.4179
     0.4180   0.4520   0.4548   0.4552   0.4554   0.4559   0.4710   0.4723
     0.4729   0.4736   0.5131   0.5135   0.5266   0.5271   0.5278   0.5293
     0.5295   0.5419   0.5591   0.5613   0.5640   0.5662   0.5671   0.5687
     0.5689   0.5690   0.5755   0.5782   0.5787   0.5876   0.5885   0.5888
     0.5897   0.5981   0.5982   0.6262   0.6396   0.6398   0.6488   0.6506
     0.6820   0.6825   0.6828   0.6832   0.6856   0.6857   0.6858   0.6859
     0.6971   0.6982   0.7084   0.7121   0.7125   0.7143   0.7166   0.7216
     0.7217   0.7333   0.7342   0.7450   0.7542   0.7543   0.7545   0.7549
     0.7655   0.7662   0.7773   0.7808   0.7827   0.7827   0.7868   0.7878
     0.7880   0.7907   0.8016   0.8351   0.8375   0.8393   0.8396   0.8398
     0.8473   0.8525   0.8532   0.8579   0.8582   0.8585   0.8596   0.8895
     0.8901   0.9057   0.9066   0.9097   0.9099   0.9245   0.9245   0.9332
     0.9345   0.9359   0.9366   0.9409   0.9559   0.9696   0.9721   0.9727
     0.9745   0.9749   0.9762   0.9944   1.0005   1.0096   1.0191   1.0191
[...]
     3.9318   3.9803   3.9821   3.9991   4.0401   4.0410   4.0413   4.0422
     4.0494   4.0536   4.0661   4.0687   4.2964   4.2974   4.3031   4.3045
     4.4777   4.6491   4.7938   5.0276   5.0336   5.0585   5.0615   5.3424
     5.4624   5.4706   5.4853   5.7691   5.7719   5.7739   5.7807   5.9614
     5.9655   6.4075   6.4101   6.4257   6.4455   6.5265   6.5282   6.5310
     6.5355   6.6960   6.6970   6.6977   6.6995   6.8565   6.8608   6.8628
     6.8665   6.9455   6.9679   7.0927   7.1320   7.1366   7.1376   7.1386
     7.1444   7.3923   7.3966   7.6092   7.6203   7.6497   7.7347   7.7350
     7.7495   7.7524   8.0925   8.1562   8.1718   8.2574   8.2773   8.3404
     8.3663   8.3665   8.3785   8.3872   8.4250   8.4278   8.4788   8.4905
     8.5912   8.6622   8.6672   8.6719   8.6764   8.7268   8.7286   8.7314
     8.7330   8.8556   8.8573   8.8866   8.8877   8.8904   8.8962   9.1015
     9.1685   9.1712   9.1750   9.1782   9.1824   9.1935   9.3844   9.3883
     9.4984   9.5500   9.5701   9.5760   9.6143   9.6145   9.6754   9.7045
     9.8641  10.0764  10.0767  10.1638  10.3148

[...]

          k = 0.2500-0.2165 0.0000 (256316 PWs)   bands (ev):

[...]

          k =-0.5000 0.0000 0.0000 (256496 PWs)   bands (ev):

[...]

          k =-0.5000-0.2165 0.0000 (256328 PWs)   bands (ev):

   -22.7110 -15.7261 -15.7258 -15.7235 -15.7152 -14.9879 -14.9874 -14.9856
   -14.9815 -13.5401 -13.5389 -13.5365 -13.5346 -11.9134 -11.9126 -11.9080
   -11.9074 -11.4720 -11.4712 -11.4697 -11.4658 -11.2922 -11.2907 -11.2884
   -11.2873  -9.5930  -9.5925  -9.5897  -9.5890  -8.6307  -8.6287  -8.6229
    -8.6178  -7.8622  -7.8620  -7.8590  -7.8585  -7.1839  -5.7861  -5.7858
    -5.7841  -5.7824  -5.1644  -5.1633  -5.1618  -5.1608  -5.1529  -5.1528
    -5.1525  -5.1522  -4.9356  -4.9355  -4.9246  -4.9193  -4.5923  -4.5910
    -4.2996  -4.2926  -4.2820  -4.2803  -4.1727  -4.1726  -4.1724  -4.1723
    -4.0622  -4.0612  -4.0607  -4.0578  -3.8307  -3.8147  -3.8119  -3.8095
    -3.5140  -3.5129  -3.5121  -3.5111  -3.5106  -3.5089  -3.5084  -3.5059
    -3.4232  -3.4013  -3.3999  -3.3990  -3.0721  -2.9957  -2.9954  -2.9938
    -2.7828  -2.5539  -2.5538  -2.5535  -2.5531  -2.4888  -2.4879  -2.4873
    -2.4777  -2.1873  -2.1868  -2.1853  -2.1842  -2.0664  -2.0661  -2.0661
    -2.0647  -1.9825  -1.9815  -1.9812  -1.9786  -1.8838  -1.8830  -1.8786
    -1.8755  -1.7774  -1.7773  -1.7760  -1.7758  -1.6707  -1.6697  -1.6686
    -1.6605  -1.4674  -1.4673  -1.4671  -1.4671  -1.4470  -1.4468  -1.4455
    -1.4388  -1.4242  -1.4235  -1.4203  -1.4178  -1.4049  -1.4046  -1.4024
    -1.4024  -1.3581  -1.3579  -1.3578  -1.3576  -1.3557  -1.3555  -1.3550
    -1.3546  -1.3309  -1.3308  -1.3306  -1.3304  -1.2799  -1.2794  -1.2789
    -1.2788  -1.2010  -1.2007  -1.1997  -1.1992  -1.1627  -1.1627  -1.1626
    -1.1624  -1.1442  -1.1441  -1.1440  -1.1437  -1.0918  -1.0917  -1.0915
    -1.0914  -1.0862  -1.0861  -1.0861  -1.0861  -1.0532  -1.0531  -1.0529
    -1.0509  -1.0303  -1.0303  -1.0293  -1.0289  -1.0132  -1.0132  -1.0122
    -1.0120  -1.0082  -1.0081  -1.0075  -1.0074  -0.9004  -0.9001  -0.8859
    -0.8829  -0.8532  -0.8531  -0.8523  -0.8521  -0.8260  -0.8259  -0.8255
    -0.8255  -0.7406  -0.7405  -0.7401  -0.7399  -0.7349  -0.7346  -0.7345
    -0.7343  -0.7320  -0.7319  -0.7315  -0.7314  -0.6719  -0.6718  -0.6715
    -0.6713  -0.6597  -0.6594  -0.6582  -0.6581  -0.6386  -0.6385  -0.6374
    -0.6371  -0.5423  -0.5421  -0.5417  -0.5416  -0.5370  -0.5369  -0.5358
    -0.5357  -0.4687  -0.4685  -0.4682  -0.4681  -0.4182  -0.4181  -0.4179
    -0.4177  -0.3974  -0.3973  -0.3970  -0.3967  -0.3703  -0.3703  -0.3688
    -0.3687  -0.3588  -0.3588  -0.3582  -0.3579  -0.3183  -0.3180  -0.3172
    -0.3168  -0.2453  -0.2452  -0.2440  -0.2439  -0.2278  -0.2278  -0.2271
    -0.2270  -0.2103  -0.2102  -0.2095  -0.2095  -0.1265  -0.1262  -0.1261
    -0.1257  -0.1224  -0.1223  -0.1216  -0.1215  -0.1194  -0.1192  -0.1190
    -0.1189  -0.0795  -0.0794  -0.0793  -0.0793  -0.0674  -0.0674  -0.0668
    -0.0668  -0.0650  -0.0649  -0.0647  -0.0647   0.0048   0.0049   0.0059
     0.0062   0.0292   0.0294   0.0301   0.0301   0.0815   0.0819   0.0867
     0.0873   0.1049   0.1052   0.1058   0.1077   0.1150   0.1153   0.1154
     0.1155   0.1202   0.1204   0.1222   0.1224   0.1228   0.1235   0.1246
     0.1248   0.1328   0.1329   0.1346   0.1346   0.1396   0.1397   0.1419
     0.1420   0.1555   0.1555   0.1560   0.1561   0.1843   0.1844   0.1847
     0.1848   0.1937   0.1938   0.1944   0.1945   0.2411   0.2413   0.2421
     0.2422   0.2742   0.2742   0.2743   0.2745   0.3482   0.3501   0.3512
     0.3520   0.3591   0.3604   0.3604   0.3607   0.3747   0.3751   0.3755
     0.3756   0.3901   0.3903   0.3923   0.3925   0.3936   0.3937   0.3960
     0.3970   0.4003   0.4011   0.4021   0.4030   0.4144   0.4152   0.4155
     0.4173   0.4401   0.4402   0.4418   0.4422   0.4873   0.4878   0.4882
     0.4883   0.4905   0.4906   0.4922   0.4927   0.5030   0.5030   0.5035
     0.5037   0.5395   0.5399   0.5411   0.5413   0.5415   0.5418   0.5425
     0.5426   0.5868   0.5870   0.5871   0.5874   0.5986   0.5986   0.5993
     0.5994   0.6057   0.6058   0.6072   0.6075   0.6078   0.6079   0.6083
     0.6087   0.6243   0.6245   0.6250   0.6252   0.6413   0.6415   0.6422
     0.6425   0.7098   0.7103   0.7123   0.7128   0.7138   0.7141   0.7147
     0.7155   0.7253   0.7255   0.7264   0.7266   0.7459   0.7467   0.7501
     0.7510   0.7618   0.7618   0.7627   0.7628   0.7647   0.7649   0.7651
     0.7651   0.8160   0.8161   0.8180   0.8183   0.8441   0.8445   0.8453
     0.8455   0.8722   0.8725   0.8745   0.8752   0.8798   0.8800   0.8805
     0.8806   0.9048   0.9054   0.9073   0.9076   0.9569   0.9571   0.9582
     0.9582   0.9911   0.9912   0.9923   0.9925   1.0444   1.0447   1.0456
[...]
     4.2588   4.2619   4.2626   4.3845   4.3861   4.3940   4.3950   4.6015
     4.6036   4.6048   4.6055   4.6386   4.6387   4.6417   4.6431   4.9436
     4.9449   4.9502   4.9549   5.1131   5.1150   5.1392   5.1425   5.2135
     5.2140   5.2188   5.2190   5.3541   5.3581   5.3820   5.3868   5.4025
     5.4076   5.4089   5.4091   5.7775   5.7788   5.7796   5.7799   5.8016
     5.8033   5.8038   5.8047   5.9476   5.9482   5.9601   5.9718   6.8099
     6.8103   6.8160   6.8161   7.1638   7.1644   7.1673   7.1682   7.1982
     7.1984   7.1996   7.1996   7.3370   7.3390   7.3409   7.3497   7.4035
     7.4035   7.4040   7.4041   7.6699   7.6710   7.6746   7.6761   8.0171
     8.0212   8.0263   8.0269   8.1045   8.1072   8.1114   8.1179   8.2825
     8.2828   8.2898   8.2914   8.3149   8.4104   8.4202   8.5223   8.9388
     8.9390   8.9395   8.9398   8.9562   8.9566   8.9586   8.9694   9.0089
     9.0091   9.0095   9.0098   9.1462   9.1505   9.1606   9.1606   9.3339
     9.3637   9.3696   9.4949   9.5824   9.5831   9.6031   9.6032   9.6342
     9.6352   9.6371   9.6445   9.9050   9.9968

     the Fermi energy is     3.3556 ev

!    total energy              =  -12750.25437595 Ry
     Harris-Foulkes estimate   =  -12750.25437599 Ry
     estimated scf accuracy    <          6.5E-09 Ry

     The total energy is the sum of the following terms:

     one-electron contribution = -107956.36743907 Ry
     hartree contribution      =   55346.42489459 Ry
     xc contribution           =   -4458.00831229 Ry
     ewald contribution        =   44324.11218658 Ry
     Dispersion Correction     =      -3.00327018 Ry
     smearing contrib. (-TS)   =      -3.41243559 Ry

     convergence has been achieved in  44 iterations

     Writing output data file gc.save

     General routines

     Parallel routines

   This run was terminated on:   1: 7:30   7Sep2017

   JOB DONE.